&control
  calculation ='scf'
  restart_mode ='from_scratch',
  prefix       ='ZnO',
  outdir='./temp'
  pseudo_dir='./GBRV_PBEsol'
  disk_io='low'
  etot_conv_thr=1.D-7,
  forc_conv_thr=1.D-6,
  verbosity    ='high',
  tprnfor=.t.
  tstress=.t.
  nstep=200
!  tefield = .true.
!  dipfield = .true.

 /
&system
  nosym = .true.,
  ibrav= 0,
  nat=  72,
  ntyp= 3,
  tot_charge = 0.0
  ecutwfc =  60,
  ecutrho = 500,
  occupations='smearing', smearing='mv', degauss=0.001,
!  eamp = 0.0
!  edir = 3
!  emaxpos = 0.1
!  eopreg = 0.05

!  input_dft='hse', nqx1=2, nqx2=2, nqx3=1,
!  x_gamma_extrapolation = .true.
!  vdw_corr = DFT-D3
/

&electrons
    mixing_mode = 'plain'
    mixing_beta = 0.5,
    conv_thr =  1.0d-8
!   Startingpot = 'file'
!   Startingwfc = 'file'
/

&IONS
  upscale           = 100.D0,
/

&CELL
  cell_dynamics     = 'bfgs'
  press_conv_thr    = 0.5d0
  cell_dofree = 'all'
/

ATOMIC_SPECIES
Zn 65.38   zn_pbesol_v1.uspp.F.UPF
O  15.999  o_pbesol_v1.2.uspp.F.UPF
Mg 24.305   mg_pbesol_v1.4.uspp.F.UPF

K_POINTS {automatic}
4 4 4 0 0 0 

CELL_PARAMETERS (angstrom)
   9.748833799  -0.009047917  -0.000288781
  -4.882236168   8.442786028   0.002521343
  -0.000314651   0.002939158  10.371505795

ATOMIC_POSITIONS (crystal)
Zn       0.222444398   0.111492225   0.194565908
Zn       0.222409319   0.110801913   0.693998172
Zn       0.223203104   0.443863966   0.193733907
Zn       0.222088824   0.445791726   0.694029679
Zn       0.224625409   0.781449410   0.193267762
Zn       0.220437481   0.775800889   0.693329649
Zn       0.554319833   0.110175684   0.195054269
Zn       0.556163228   0.111805424   0.695331461
Zn       0.555381639   0.444198755   0.192743558
Mg       0.554920601   0.442330639   0.695233518
Mg       0.555343429   0.780421355   0.194071892
Zn       0.555674269   0.776131772   0.691999509
Zn       0.888877625   0.110642995   0.193522836
Mg       0.887115659   0.110007632   0.696081476
Zn       0.886966378   0.443506869   0.193414823
Mg       0.889090337   0.444592179   0.695062151
Mg       0.888806100   0.777953097   0.192918747
Mg       0.886698180   0.776085858   0.693771217
Zn       0.109963395   0.222415408   0.445354214
Zn       0.113450264   0.224248816   0.944291160
Zn       0.110801277   0.555992398   0.442721871
Mg       0.112330171   0.555540942   0.946685258
Mg       0.111032548   0.889020352   0.443755742
Mg       0.113631658   0.891176094   0.943022201
Zn       0.446034823   0.224055397   0.445153107
Zn       0.444882342   0.221832964   0.945288534
Mg       0.444343159   0.553335937   0.443209916
Mg       0.444767810   0.555963747   0.943571317
Mg       0.444979679   0.890175821   0.446909103
Zn       0.444945999   0.888032881   0.942889184
Zn       0.778910995   0.223334532   0.444020500
Zn       0.776495896   0.221879762   0.944053335
Zn       0.776703340   0.554240049   0.443497744
Zn       0.778420889   0.556054904   0.942364294
Zn       0.777993204   0.889095463   0.442851888
Zn       0.775988106   0.887073094   0.943117114
O        0.222561615   0.111781374   0.003535492
O        0.222240745   0.111303745   0.502508364
O        0.223757097   0.445558742   0.002868331
O        0.222208142   0.445272207   0.502463610
O        0.222456464   0.778521766   0.002027730
O        0.221947470   0.778345882   0.502264930
O        0.554860177   0.109766256   0.003807489
O        0.556332267   0.112317598   0.503768564
O        0.555980502   0.445143500   0.001152884
O        0.555453604   0.444792665   0.504965535
O        0.554752188   0.776958064   0.003908602
O        0.554417843   0.776249399   0.500215879
O        0.889120295   0.110921289   0.001541948
O        0.887977181   0.110581874   0.505095287
O        0.889049974   0.444648195   0.001905554
O        0.889459275   0.445067547   0.504149551
O        0.890823907   0.778796053   0.002009874
O        0.889104542   0.777846847   0.502595302
O        0.110854819   0.222214604   0.253764572
O        0.110662397   0.222006569   0.752603334
O        0.111342165   0.556258353   0.250667071
O        0.110276094   0.554855083   0.755800726
O        0.110182437   0.888771789   0.252916427
O        0.109320052   0.887708158   0.752226798
O        0.444813077   0.222856353   0.253490591
O        0.443802969   0.220931535   0.754081022
O        0.446017931   0.557321418   0.252363186
O        0.444784837   0.554367463   0.752823885
O        0.444668951   0.889335063   0.256212826
O        0.444315893   0.887687185   0.751001410
O        0.777795030   0.221727739   0.252870478
O        0.778423058   0.222782854   0.753053186
O        0.777704635   0.555947630   0.252315693
O        0.777318795   0.554642836   0.751235952
O        0.777625159   0.888325286   0.251482939
O        0.777347043   0.887866129   0.752107964

