&control
  calculation ='scf'
  restart_mode ='from_scratch',
  prefix       ='MgO',
  outdir='./temp'
  pseudo_dir='./GBRV_PBEsol'
  disk_io='low'
  etot_conv_thr=1.D-7,
  forc_conv_thr=1.D-6,
  verbosity    ='high',
  tprnfor=.t.
  tstress=.t.
  nstep=200
!  tefield = .true.
!  dipfield = .true.

 /
&system
  nosym = .false.,
  ibrav= 4,
  nat=  4,
  ntyp= 2,
  A = 3.492005615
  C = 4.194949931
  tot_charge = 0.0
  ecutwfc =  50,
  ecutrho = 250,
/

&electrons
    mixing_mode = 'plain'
    mixing_beta = 0.5,
    conv_thr =  1.0d-10
!   Startingpot = 'file'
!   Startingwfc = 'file'
/

&IONS
  upscale           = 100.D0,
/

&CELL
  cell_dynamics     = 'bfgs'
  press_conv_thr    = 0.5d0
  cell_dofree = 'all'
/

ATOMIC_SPECIES
Mg 24.305   mg_pbesol_v1.4.uspp.F.UPF
O  15.999  o_pbesol_v1.2.uspp.F.UPF

K_POINTS {automatic}
8 8 8 0 0 0 


ATOMIC_POSITIONS (crystal)
O        0.666666667   0.33333333  0.000000
O        0.333333333   0.66666667   0.500000
Mg       0.666666667   0.33333333   0.500000
Mg       0.333333333   0.66666667  0.000000

