q2r
&input
   fildyn='MgO.dynG'
   zasr='crystal'
   flfrc='MgO.222.fc'
/

