&control
  calculation ='vc-relax'
  restart_mode ='from_scratch',
  prefix       ='ZnO',
  outdir='./temp'
  pseudo_dir='./GBRV_PBEsol'
  disk_io='low'
  etot_conv_thr=1.D-7,
  forc_conv_thr=1.D-6,
  verbosity    ='high',
  tprnfor=.t.
  tstress=.t.
  nstep=200
!  tefield = .true.
!  dipfield = .true.

 /
&system
  nosym = .true.,
  ibrav= 0,
  nat=  72,
  ntyp= 3,
  tot_charge = 0.0
  ecutwfc =  60,
  ecutrho = 500,
  occupations='smearing', smearing='mv', degauss=0.001,
!  eamp = 0.0
!  edir = 3
!  emaxpos = 0.1
!  eopreg = 0.05

!  input_dft='hse', nqx1=2, nqx2=2, nqx3=1,
!  x_gamma_extrapolation = .true.
!  vdw_corr = DFT-D3
/

&electrons
    mixing_mode = 'plain'
    mixing_beta = 0.5,
    conv_thr =  1.0d-8
!   Startingpot = 'file'
!   Startingwfc = 'file'
/

&IONS
  upscale           = 100.D0,
/

&CELL
  cell_dynamics     = 'bfgs'
  press_conv_thr    = 0.5d0
  cell_dofree = 'all'
/

ATOMIC_SPECIES
Zn 65.38   zn_pbesol_v1.uspp.F.UPF
O  15.999  o_pbesol_v1.2.uspp.F.UPF
Mg 24.305   mg_pbesol_v1.4.uspp.F.UPF

K_POINTS {automatic}
4 4 4 0 0 0 

CELL_PARAMETERS (angstrom)
   9.724834367   0.000056564   0.000169556
  -4.862353158   8.421623343  -0.000213006
   0.000182837  -0.000159042  10.411039608

ATOMIC_POSITIONS (crystal)
Zn       0.222918884   0.112545772   0.193547252
Zn       0.554888538   0.110095690   0.193151860
Zn       0.889499855   0.112530748   0.191939193
Zn       0.222174524   0.444359764   0.192779769
Zn       0.555467978   0.444335492   0.194170048
Zn       0.889091162   0.444449063   0.194006616
Zn       0.223983623   0.777479498   0.193276653
Zn       0.553470439   0.777462004   0.193431208
Zn       0.888594970   0.776769396   0.191305351
Zn       0.220728493   0.109804680   0.693946983
Zn       0.555910215   0.112977761   0.693932649
Zn       0.556151972   0.444299326   0.694525881
Zn       0.888082397   0.444232551   0.694595121
Zn       0.220239225   0.778245010   0.693403399
Zn       0.559308847   0.778293660   0.693724246
Zn       0.110606530   0.222765869   0.443385258
Zn       0.444816580   0.222487259   0.444468658
Zn       0.777774738   0.222229702   0.443573825
Zn       0.111149386   0.555332014   0.444055898
Zn       0.444432624   0.555495619   0.443978022
Zn       0.778143733   0.556122427   0.443325134
Zn       0.110035958   0.887945263   0.441951188
Zn       0.778488909   0.888828854   0.441208840
Zn       0.111496357   0.221933915   0.942348889
Zn       0.444259814   0.222880485   0.944237695
Zn       0.777657396   0.223215567   0.943609661
Zn       0.111232343   0.556078478   0.943255898
Zn       0.444945104   0.555920444   0.943723176
Zn       0.777974719   0.555608601   0.943866648
Zn       0.443848453   0.887567203   0.942190505
Mg       0.887413220   0.109817723   0.694113705
Mg       0.223717348   0.445160408   0.694755405
Mg       0.888397525   0.777153809   0.693287170
Mg       0.444559987   0.888970880   0.445557522
Mg       0.113007246   0.889079157   0.944899634
Mg       0.775575162   0.887472087   0.944893363
O        0.222170643   0.111127964   0.003451107
O        0.554870323   0.110346498   0.002931703
O        0.888471896   0.110713788   0.001572049
O        0.222095644   0.444152361   0.002287170
O        0.555950890   0.444773483   0.003957991
O        0.889168206   0.444816139   0.003847290
O        0.222907672   0.777652391   0.003384806
O        0.554540074   0.777453959   0.003613292
O        0.889837133   0.778822813   0.001043571
O        0.221587719   0.110560731   0.503001433
O        0.555657403   0.111184920   0.503662442
O        0.888378151   0.110516860   0.504020155
O        0.222424927   0.444591766   0.504850434
O        0.555850286   0.444673501   0.503859348
O        0.888823405   0.444446089   0.503654212
O        0.221949505   0.777981116   0.502993142
O        0.556471660   0.778183674   0.503014575
O        0.888877862   0.778073761   0.503601605
O        0.110892633   0.222518219   0.253254146
O        0.444733919   0.222179257   0.253864507
O        0.777450723   0.222017461   0.253156261
O        0.111360701   0.555367198   0.253588224
O        0.444039586   0.555291798   0.253564582
O        0.777924325   0.555707249   0.253283167
O        0.111282145   0.888743901   0.251312952
O        0.444599625   0.889198281   0.255786976
O        0.777757094   0.888985517   0.250679799
O        0.110206151   0.222519895   0.751991372
O        0.443250372   0.221979604   0.753843029
O        0.777780384   0.222046740   0.753412618
O        0.111284307   0.555442906   0.753033248
O        0.445363746   0.556042987   0.753568600
O        0.777974411   0.555771339   0.753466441
O        0.109643733   0.888350915   0.755118163
O        0.444611497   0.888522474   0.751311282
O        0.779766994   0.889296266   0.755195985

