&control
  calculation ='nscf'
  restart_mode ='from_scratch',
  prefix       ='ZnO',
  outdir='./temp'
  pseudo_dir='./GBRV_PBEsol'
  disk_io='low'
  etot_conv_thr=1.D-7,
  forc_conv_thr=1.D-6,
  verbosity    ='high',
!  tprnfor=.t.
!  tstress=.t.
  nstep=200
nppstr=8
gdir = 3
lberry=.true.
!  tefield = .true.
!  dipfield = .true.

 /
&system
  nosym = .true.,
  ibrav= 0,
  nat=  72,
  ntyp= 3,
  tot_charge = 0.0
  ecutwfc =  60,
  ecutrho = 500,
!  occupations='smearing', smearing='mv', degauss=0.001,
!  eamp = 0.0
!  edir = 3
!  emaxpos = 0.1
!  eopreg = 0.05

!  input_dft='hse', nqx1=2, nqx2=2, nqx3=1,
!  x_gamma_extrapolation = .true.
!  vdw_corr = DFT-D3
/

&electrons
    mixing_mode = 'plain'
    mixing_beta = 0.5,
    conv_thr =  1.0d-8
!   Startingpot = 'file'
!   Startingwfc = 'file'
/

&IONS
  upscale           = 100.D0,
/

&CELL
  cell_dynamics     = 'bfgs'
  press_conv_thr    = 0.5d0
  cell_dofree = 'all'
/

ATOMIC_SPECIES
Zn 65.38   zn_pbesol_v1.uspp.F.UPF
O  15.999  o_pbesol_v1.2.uspp.F.UPF
Mg 24.305   mg_pbesol_v1.4.uspp.F.UPF

K_POINTS {automatic}
4 4 8 0 0 0 

CELL_PARAMETERS (angstrom)
   9.748833799  -0.009047917  -0.000288781
  -4.882236168   8.442786028   0.002521343
  -0.000314651   0.002939158  10.319648266025

ATOMIC_POSITIONS (crystal)
Zn       0.222413309   0.111478726   0.194952510
Zn       0.222388837   0.110808643   0.694290244
Zn       0.223240701   0.443854451   0.194124966
Zn       0.222048031   0.445800833   0.694355922
Zn       0.224702734   0.781539130   0.193629053
Zn       0.220308643   0.775693471   0.693713898
Zn       0.554313460   0.110136463   0.195434125
Zn       0.556224071   0.111871565   0.695617602
Zn       0.555405846   0.444238354   0.192968065
Mg       0.554970336   0.442319675   0.695659663
Mg       0.555370345   0.780476264   0.194542059
Zn       0.555724393   0.776080429   0.692208434
Zn       0.888874620   0.110625018   0.193734095
Mg       0.887104233   0.109987257   0.696489671
Zn       0.886904239   0.443500676   0.193696417
Mg       0.889112970   0.444604834   0.695424734
Mg       0.888759222   0.777932709   0.193268477
Mg       0.886645358   0.776053908   0.694059971
Zn       0.109936004   0.222401829   0.445739283
Zn       0.113520208   0.224292102   0.944572618
Zn       0.110804576   0.556018942   0.442922773
Mg       0.112399853   0.555592183   0.947148891
Mg       0.111075721   0.889023865   0.444094406
Mg       0.113669257   0.891181568   0.943322380
Zn       0.446040346   0.224090127   0.445469823
Zn       0.444842307   0.221772822   0.945632519
Mg       0.444316125   0.553289280   0.443531656
Mg       0.444738428   0.556022009   0.943891961
Mg       0.444922796   0.890163973   0.447382114
Zn       0.444940375   0.887982869   0.943070117
Zn       0.778946890   0.223341999   0.444374258
Zn       0.776465399   0.221871962   0.944386578
Zn       0.776675950   0.554214040   0.443902970
Zn       0.778479481   0.556131821   0.942688932
Zn       0.778038221   0.889138679   0.443196301
Zn       0.775919106   0.886980327   0.943504349
O        0.222538481   0.111756089   0.003214076
O        0.222245326   0.111295124   0.502107714
O        0.223786844   0.445563174   0.002557775
O        0.222199322   0.445310136   0.502086845
O        0.222508979   0.778585470   0.001681190
O        0.221894604   0.778301904   0.501942979
O        0.554822823   0.109694951   0.003479252
O        0.556345473   0.112349266   0.503372307
O        0.555960558   0.445167788   0.000653674
O        0.555433248   0.444810297   0.504786293
O        0.554704288   0.776951116   0.003754712
O        0.554397065   0.776210121   0.499710171
O        0.889137234   0.110912306   0.001047170
O        0.887962540   0.110573467   0.504913530
O        0.889066709   0.444661402   0.001472206
O        0.889504983   0.445093025   0.503909278
O        0.890900550   0.778841897   0.001740233
O        0.889147143   0.777865424   0.502272954
O        0.110811654   0.222198414   0.253450483
O        0.110663608   0.222013041   0.752202431
O        0.111324134   0.556272380   0.250150651
O        0.110254929   0.554818790   0.755669000
O        0.110125651   0.888738556   0.252636917
O        0.109253782   0.887691059   0.751905307
O        0.444837442   0.222902801   0.253110913
O        0.443780559   0.220890539   0.753732667
O        0.446071706   0.557342734   0.252066565
O        0.444791066   0.554355221   0.752520762
O        0.444674649   0.889349686   0.256091745
O        0.444323870   0.887655123   0.750465091
O        0.777827685   0.221728749   0.252508561
O        0.778433890   0.222794604   0.752692262
O        0.777682176   0.555944896   0.251995619
O        0.777355363   0.554662663   0.750876017
O        0.777668828   0.888359732   0.251126460
O        0.777320446   0.887825252   0.751784357

