&control
  calculation ='nscf'
  restart_mode ='from_scratch',
  prefix       ='ZnO',
  outdir='./temp'
  pseudo_dir='./GBRV_PBEsol'
  disk_io='low'
  etot_conv_thr=1.D-7,
  forc_conv_thr=1.D-6,
  verbosity    ='high',
!  tprnfor=.t.
!  tstress=.t.
  nstep=200
nppstr=8
gdir = 3
lberry=.true.
!  tefield = .true.
!  dipfield = .true.

 /
&system
  nosym = .true.,
  ibrav= 0,
  nat=  72,
  ntyp= 3,
  tot_charge = 0.0
  ecutwfc =  60,
  ecutrho = 500,
!  occupations='smearing', smearing='mv', degauss=0.001,
!  eamp = 0.0
!  edir = 3
!  emaxpos = 0.1
!  eopreg = 0.05

!  input_dft='hse', nqx1=2, nqx2=2, nqx3=1,
!  x_gamma_extrapolation = .true.
!  vdw_corr = DFT-D3
/

&electrons
    mixing_mode = 'plain'
    mixing_beta = 0.5,
    conv_thr =  1.0d-8
!   Startingpot = 'file'
!   Startingwfc = 'file'
/

&IONS
  upscale           = 100.D0,
/

&CELL
  cell_dynamics     = 'bfgs'
  press_conv_thr    = 0.5d0
  cell_dofree = 'all'
/

ATOMIC_SPECIES
Zn 65.38   zn_pbesol_v1.uspp.F.UPF
O  15.999  o_pbesol_v1.2.uspp.F.UPF
Mg 24.305   mg_pbesol_v1.4.uspp.F.UPF

K_POINTS {automatic}
4 4 8 0 0 0 

CELL_PARAMETERS (angstrom)
   9.749208732   0.003994283  -0.004034189
  -4.871129776   8.444195695   0.004171274
  -0.004305950   0.002658169  10.46736011082

ATOMIC_POSITIONS (crystal)
Zn       0.222465764   0.111962048   0.193888844
Zn       0.223130646   0.110665931   0.694376239
Zn       0.224555491   0.445678754   0.194263124
Zn       0.221590309   0.444684340   0.693668252
Zn       0.222055637   0.777222338   0.192206584
Mg       0.224772154   0.780638860   0.694582930
Zn       0.556364556   0.111109018   0.193855950
Zn       0.555689752   0.111799506   0.694281421
Mg       0.555516319   0.445150295   0.193694429
Mg       0.555524844   0.444123447   0.693230329
Mg       0.553159258   0.776516623   0.194379867
Zn       0.556689440   0.779218799   0.690879024
Mg       0.890277822   0.112700174   0.191870106
Mg       0.889975856   0.110794997   0.692624736
Zn       0.889113355   0.444676036   0.191773270
Mg       0.888973940   0.445824501   0.696060039
Zn       0.886718300   0.777636161   0.194002602
Zn       0.890319824   0.777814785   0.693577579
Zn       0.109682165   0.222525069   0.444448014
Zn       0.111506591   0.221683819   0.943642861
Mg       0.109291668   0.556156729   0.443522111
Zn       0.112660952   0.555189273   0.942349638
Zn       0.112318155   0.888430159   0.443120779
Mg       0.109135386   0.887965734   0.945962915
Zn       0.443616206   0.221392928   0.442934498
Mg       0.444218515   0.221672589   0.944399766
Mg       0.441980511   0.553250334   0.444484692
Zn       0.444592705   0.556443675   0.941789225
Zn       0.442744370   0.889193954   0.444086900
Zn       0.446050691   0.887916596   0.943934081
Mg       0.776747256   0.223861050   0.443647339
Zn       0.777793322   0.220429390   0.941761183
Zn       0.778853555   0.554079461   0.444232889
Zn       0.776717910   0.556620912   0.943623497
Mg       0.779669325   0.889395554   0.442854554
Mg       0.774994664   0.886111583   0.941864263
O        0.222439874   0.110267391   0.003732835
O        0.221491783   0.110870387   0.503750982
O        0.222673361   0.443926973   0.003714257
O        0.220632331   0.444974448   0.503183799
O        0.222526112   0.777772433   0.001989829
O        0.221804242   0.777080404   0.505221309
O        0.556073827   0.110833335   0.003452376
O        0.555032948   0.111131197   0.503741249
O        0.554500487   0.443631045   0.003727386
O        0.555196622   0.444151816   0.503456315
O        0.555473684   0.776713728   0.005000630
O        0.556043159   0.777234324   0.500403796
O        0.888208502   0.108644379   0.002036935
O        0.886868546   0.110871037   0.502860770
O        0.888906399   0.443993677   0.001273646
O        0.889270758   0.443956029   0.506137509
O        0.887598353   0.777857666   0.003700470
O        0.889601417   0.777468900   0.503097606
O        0.111260531   0.222850623   0.253711137
O        0.111621914   0.222374656   0.753310887
O        0.111017393   0.555421915   0.253781155
O        0.111820877   0.557628719   0.752159628
O        0.110426848   0.888494588   0.252483246
O        0.111852465   0.888988929   0.756066891
O        0.445095401   0.222809474   0.252412064
O        0.445154225   0.223071008   0.755036540
O        0.445628756   0.555922576   0.255234936
O        0.444918841   0.556252052   0.751337142
O        0.443586114   0.888873630   0.253629933
O        0.446257399   0.889768147   0.753721787
O        0.778829861   0.222706726   0.253969853
O        0.779274371   0.222612910   0.751405712
O        0.777664405   0.555177509   0.253513700
O        0.776844696   0.555515511   0.753492393
O        0.776429649   0.890418219   0.252755786
O        0.778506636   0.889198213   0.752310975

