&control
  calculation ='nscf'
  restart_mode ='from_scratch',
  prefix       ='ZnO',
  outdir='./temp'
  pseudo_dir='./GBRV_PBEsol'
  disk_io='low'
  etot_conv_thr=1.D-7,
  forc_conv_thr=1.D-6,
  verbosity    ='high',
!  tprnfor=.t.
!  tstress=.t.
  nstep=200
nppstr=8
gdir = 3
lberry=.true.
!  tefield = .true.
!  dipfield = .true.

 /
&system
  nosym = .true.,
  ibrav= 0,
  nat=  72,
  ntyp= 3,
  tot_charge = 0.0
  ecutwfc =  60,
  ecutrho = 500,
!  occupations='smearing', smearing='mv', degauss=0.001,
!  eamp = 0.0
!  edir = 3
!  emaxpos = 0.1
!  eopreg = 0.05

!  input_dft='hse', nqx1=2, nqx2=2, nqx3=1,
!  x_gamma_extrapolation = .true.
!  vdw_corr = DFT-D3
/

&electrons
    mixing_mode = 'plain'
    mixing_beta = 0.5,
    conv_thr =  1.0d-8
!   Startingpot = 'file'
!   Startingwfc = 'file'
/

&IONS
  upscale           = 100.D0,
/

&CELL
  cell_dynamics     = 'bfgs'
  press_conv_thr    = 0.5d0
  cell_dofree = 'all'
/

ATOMIC_SPECIES
Zn 65.38   zn_pbesol_v1.uspp.F.UPF
O  15.999  o_pbesol_v1.2.uspp.F.UPF
Mg 24.305   mg_pbesol_v1.4.uspp.F.UPF

K_POINTS {automatic}
4 4 8 0 0 0 

CELL_PARAMETERS (angstrom)
   9.724698783   0.000056463   0.000169329
  -4.862285454   8.421506504  -0.000214622
   0.000182595  -0.000161180  10.51497788695

ATOMIC_POSITIONS (crystal)
Zn       0.222887159   0.112448125   0.192827873
Zn       0.554911460   0.110168811   0.192524353
Zn       0.889423926   0.112434759   0.191404882
Zn       0.222201579   0.444394322   0.192307671
Zn       0.555456387   0.444322032   0.193514787
Zn       0.889099715   0.444444633   0.193308018
Zn       0.223872905   0.777488782   0.192573581
Zn       0.553604900   0.777472429   0.192682122
Zn       0.888639690   0.776862082   0.190795419
Zn       0.220833128   0.109886972   0.693389476
Zn       0.555824464   0.112878442   0.693289081
Zn       0.556186454   0.444285495   0.693958039
Zn       0.888030193   0.444233183   0.694081339
Zn       0.220415460   0.778304463   0.692781995
Zn       0.559133781   0.778291125   0.693147995
Zn       0.110631563   0.222740714   0.442581171
Zn       0.444822995   0.222540719   0.443844003
Zn       0.777792512   0.222317281   0.442930109
Zn       0.111072238   0.555314355   0.443392710
Zn       0.444483969   0.555479881   0.443318106
Zn       0.778119521   0.556057794   0.442573274
Zn       0.110072511   0.887981423   0.441456856
Zn       0.778451546   0.888800117   0.440709675
Zn       0.111503591   0.222060394   0.941841750
Zn       0.444284163   0.222916118   0.943632598
Zn       0.777688658   0.223212726   0.942996729
Zn       0.111276359   0.556000011   0.942651605
Zn       0.444843635   0.555847713   0.943115441
Zn       0.777964861   0.555599158   0.943357327
Zn       0.443846320   0.887560051   0.941882230
Mg       0.887394479   0.109865511   0.693443961
Mg       0.223758324   0.445195639   0.694069511
Mg       0.888372170   0.777041137   0.692544164
Mg       0.444562814   0.888965915   0.444701723
Mg       0.112956168   0.889022507   0.944154927
Mg       0.775616475   0.887505529   0.944100097
O        0.222161375   0.111119465   0.004019455
O        0.554918699   0.110433750   0.003597619
O        0.888469824   0.110723948   0.002352461
O        0.222116212   0.444176718   0.003113488
O        0.555923006   0.444768401   0.004584508
O        0.889185912   0.444804569   0.004436185
O        0.222825083   0.777591314   0.003988880
O        0.554600350   0.777411139   0.004177303
O        0.889804779   0.778807115   0.001854273
O        0.221612422   0.110629727   0.503699892
O        0.555642801   0.111175095   0.504300077
O        0.888427688   0.110599065   0.504425230
O        0.222409738   0.444573220   0.505225958
O        0.555881631   0.444687957   0.504548828
O        0.888813318   0.444466582   0.504377320
O        0.221989386   0.777956947   0.503658482
O        0.556394367   0.778148902   0.503707647
O        0.888849329   0.777991668   0.503972141
O        0.110907192   0.222477329   0.253768162
O        0.444688089   0.222175278   0.254505582
O        0.777454892   0.222051155   0.253797138
O        0.111336801   0.555400034   0.254209134
O        0.444110590   0.555342839   0.254191915
O        0.777920484   0.555682055   0.253845364
O        0.111308632   0.888767454   0.252138014
O        0.444590994   0.889157135   0.256009257
O        0.777732398   0.888966380   0.251521657
O        0.110215809   0.222526543   0.752738112
O        0.443313176   0.221991379   0.754503105
O        0.777710107   0.222034046   0.754076971
O        0.111288370   0.555468676   0.753709718
O        0.445384290   0.556031986   0.754244725
O        0.777960131   0.555754794   0.754213621
O        0.109674231   0.888347218   0.755445304
O        0.444622475   0.888568304   0.752283151
O        0.779719345   0.889251461   0.755474724

