&control
  calculation ='scf'
  restart_mode ='from_scratch',
  prefix       ='ZnO',
  outdir='./temp'
  pseudo_dir='./GBRV_PBEsol'
  disk_io='low'
  etot_conv_thr=1.D-7,
  forc_conv_thr=1.D-6,
  verbosity    ='high',
  tprnfor=.t.
  tstress=.t.
  nstep=200
!  tefield = .true.
!  dipfield = .true.

 /
&system
  nosym = .true.,
  ibrav= 0,
  nat=  72,
  ntyp= 3,
  tot_charge = 0.0
  ecutwfc =  60,
  ecutrho = 500,
  occupations='smearing', smearing='mv', degauss=0.001,
!  eamp = 0.0
!  edir = 3
!  emaxpos = 0.1
!  eopreg = 0.05

!  input_dft='hse', nqx1=2, nqx2=2, nqx3=1,
!  x_gamma_extrapolation = .true.
!  vdw_corr = DFT-D3
/

&electrons
    mixing_mode = 'plain'
    mixing_beta = 0.5,
    conv_thr =  1.0d-8
!   Startingpot = 'file'
!   Startingwfc = 'file'
/

&IONS
  upscale           = 100.D0,
/

&CELL
  cell_dynamics     = 'bfgs'
  press_conv_thr    = 0.5d0
  cell_dofree = 'all'
/

ATOMIC_SPECIES
Zn 65.38   zn_pbesol_v1.uspp.F.UPF
O  15.999  o_pbesol_v1.2.uspp.F.UPF
Mg 24.305   mg_pbesol_v1.4.uspp.F.UPF

K_POINTS {automatic}
4 4 4 0 0 0 

CELL_PARAMETERS (angstrom)
   9.760484460  -0.006522928   0.006380063
  -4.885876579   8.462586866  -0.002526486
   0.006803180   0.000805560  10.338063302

ATOMIC_POSITIONS (crystal)
Mg	0.222441463	0.77948559	0.250234373   
Mg	0.222908614	0.441580747	0.251837706   
Mg	0.890815494	0.110771648	0.251957783   
Mg	0.556282285	0.7781287	0.253298607   
Mg	0.890004067	0.779668855	0.253636898   
Mg	0.554385841	0.112465401	0.256119912   
Mg	0.111358748	0.556252655	0.500869397   
Mg	0.77541965	0.887802425	0.503532947   
Mg	0.113729338	0.890238962	0.504125358   
Mg	0.113572102	0.22296955	0.504650051   
Mg	0.224176402	0.77878013	0.753188529   
Mg	0.55580264	0.444598243	0.753605814   
Mg	0.779576326	0.88958657	0.000566605   
Mg	0.111860538	0.554240913	0.000902055   
Mg	0.777948157	0.222023702	0.00382297    
Mg	0.780108959	0.55651001	0.005654391   
O	0.555660694	0.444243446	0.000566605   
O	0.890109045	0.444269109	0.000902055   
O	0.221439738	0.776620708	0.001393163   
O	0.220565028	0.11009751	0.003132523   
O	0.557444364	0.778764274	0.003746738   
O	0.887602543	0.109997564	0.00382297    
O	0.221495205	0.443575267	0.004092824   
O	0.88770825	0.777796218	0.004498007   
O	0.556353667	0.111734497	0.005654391   
O	0.778233482	0.555325796	0.249711763   
O	0.778159179	0.221738565	0.250234373   
O	0.444318079	0.889200709	0.250815371   
O	0.114341443	0.556858025	0.251837706   
O	0.44485708	0.55604785	0.251957783   
O	0.442964706	0.222793293	0.253298607   
O	0.777823957	0.88910938	0.253636898   
O	0.11123958	0.888169714	0.25480452    
O	0.11081562	0.222119812	0.256119912   
O	0.889103584	0.777904272	0.499129961   
O	0.889263443	0.11096645	0.49981871    
O	0.555300696	0.110972909	0.500568073   
O	0.22161066	0.444916835	0.500869397   
O	0.553562824	0.777068025	0.501428379   
O	0.888880134	0.4447711	0.50178885    
O	0.220740298	0.77672111	0.503532947   
O	0.222291536	0.110906034	0.504125358   
O	0.555952914	0.44512277	0.504650051   
O	0.77801554	0.888783575	0.750215313   
O	0.110588414	0.222755738	0.751159001   
O	0.110378844	0.887767717	0.751168689   
O	0.111570488	0.556717238	0.752017235   
O	0.444422614	0.555781389	0.752606953   
O	0.445300098	0.222229158	0.753025272   
O	0.445495014	0.890048737	0.753188529   
O	0.777872241	0.222627269	0.753605814   
O	0.777365591	0.555464662	0.754737274   
Zn	0.891450389	0.444506377	0.249711763   
Zn	0.554085113	0.443769295	0.250815371   
Zn	0.219771557	0.110264991	0.25480452    
Zn	0.776450354	0.554009607	0.499129961   
Zn	0.441467276	0.887152151	0.49981871    
Zn	0.778615793	0.223319781	0.500568073   
Zn	0.444259105	0.554410497	0.501428379   
Zn	0.44380992	0.223839468	0.50178885    
Zn	0.887391101	0.111694036	0.750215313   
Zn	0.8878986	0.775455444	0.751159001   
Zn	0.222650662	0.446161591	0.751168689   
Zn	0.556388417	0.111234175	0.752017235   
Zn	0.554232695	0.777732874	0.752606953   
Zn	0.888423791	0.444865894	0.753025272   
Zn	0.22289249	0.110932959	0.754737274   
Zn	0.109111297	0.88768608	0.001393163   
Zn	0.109804443	0.221950935	0.003132523   
Zn	0.443172738	0.55599971	0.003746738   
Zn	0.443237085	0.219712933	0.004092824   
Zn	0.445649955	0.890210376	0.004498007   

