&control
  calculation ='scf'
  restart_mode ='from_scratch',
  prefix       ='ZnO',
  outdir='./temp'
  pseudo_dir='./GBRV_PBEsol'
  disk_io='low'
  etot_conv_thr=1.D-7,
  forc_conv_thr=1.D-6,
  verbosity    ='high',
  tprnfor=.t.
  tstress=.t.
  nstep=200
!  tefield = .true.
!  dipfield = .true.

 /
&system
  nosym = .true.,
  ibrav= 0,
  nat=  72,
  ntyp= 3,
  tot_charge = 0.0
  ecutwfc =  60,
  ecutrho = 500,
  occupations='smearing', smearing='mv', degauss=0.001,
!  eamp = 0.0
!  edir = 3
!  emaxpos = 0.1
!  eopreg = 0.05

!  input_dft='hse', nqx1=2, nqx2=2, nqx3=1,
!  x_gamma_extrapolation = .true.
!  vdw_corr = DFT-D3
/

&electrons
    mixing_mode = 'plain'
    mixing_beta = 0.5,
    conv_thr =  1.0d-8
!   Startingpot = 'file'
!   Startingwfc = 'file'
/

&IONS
  upscale           = 100.D0,
/

&CELL
  cell_dynamics     = 'bfgs'
  press_conv_thr    = 0.5d0
  cell_dofree = 'all'
/

ATOMIC_SPECIES
Zn 65.38   zn_pbesol_v1.uspp.F.UPF
O  15.999  o_pbesol_v1.2.uspp.F.UPF
Mg 24.305   mg_pbesol_v1.4.uspp.F.UPF

K_POINTS {automatic}
4 4 4 0 0 0 

CELL_PARAMETERS (angstrom)
   9.734857490  -0.011377777  -0.002414087
  -4.877266184   8.443328129   0.002072144
  -0.002584960   0.001066097  10.384447371

ATOMIC_POSITIONS (crystal)
Zn       0.223603409   0.111413042   0.251442764  
Zn       0.222755490   0.111772436   0.755668975  
Zn       0.222168072   0.445183841   0.253443574  
Zn       0.222000706   0.443704630   0.752438378  
Zn       0.221886214   0.777099949   0.251451385  
Zn       0.221994709   0.778103497   0.754272636  
Zn       0.554096690   0.109846551   0.253263515  
Mg       0.555047422   0.110212680   0.752590893  
Zn       0.555338629   0.444789471   0.252652129  
Mg       0.555373439   0.445314852   0.753470551  
Mg       0.555001171   0.778490056   0.253037301  
Zn       0.552799226   0.776453305   0.753417027  
Zn       0.884995141   0.106720022   0.252965550  
Zn       0.891282123   0.113795495   0.753079474  
Mg       0.886292441   0.441900974   0.251847173  
Zn       0.888867077   0.444457013   0.752745025  
Mg       0.886951600   0.778240154   0.255988176  
Zn       0.891235499   0.777542628   0.750185098  
Zn       0.111647649   0.222919328   0.502605426  
Mg       0.112551139   0.222801935   0.002728522  
Mg       0.112540355   0.556250959   0.502686160  
Mg       0.112154546   0.555958902   0.002330564  
Zn       0.112861558   0.889767457   0.502739028  
Mg       0.112641952   0.889790539   0.001867845  
Zn       0.445978829   0.223251780   0.505450288  
Zn       0.443521086   0.222035382   0.001692274  
Zn       0.444256351   0.553932859   0.505314118  
Zn       0.443840369   0.556720538   0.004787933  
Zn       0.443925283   0.890579266   0.501569326  
Zn       0.443871368   0.886985217   0.002666525  
Zn       0.776711863   0.221339035   0.503488293  
Zn       0.779196892   0.223348236   0.004170590  
Zn       0.776479015   0.554586697   0.501004604  
Zn       0.780307457   0.556957858   0.004196337  
Mg       0.778366542   0.890441465   0.501089670  
Zn       0.777148904   0.887434508   0.003137893  
O        0.222106030   0.110881946   0.003137893  
O        0.222534142   0.111659575   0.502605426  
O        0.221503906   0.444602768   0.002728522  
O        0.222132520   0.444310437   0.502686160  
O        0.221331541   0.776907409   0.002330564  
O        0.221873199   0.777729045   0.502739028  
O        0.555466704   0.110813312   0.001867845  
O        0.555367418   0.111336902   0.505450288  
O        0.556222196   0.445225718   0.001692274  
O        0.555676376   0.444614945   0.505314118  
O        0.556265444   0.778105392   0.004787933  
O        0.554728891   0.777672420   0.501569326  
O        0.888821159   0.110101688   0.002666525  
O        0.889675309   0.112259234   0.503488293  
O        0.890489269   0.445133917   0.004170590  
O        0.889317319   0.444654094   0.501004604  
O        0.890208440   0.779037322   0.004196337  
O        0.889283913   0.777978724   0.501089670  
O        0.110048475   0.221467016   0.251442764  
O        0.112307658   0.222576538   0.755668975  
O        0.109179266   0.554487348   0.253443574  
O        0.111168126   0.555478461   0.752438378  
O        0.110370593   0.888496726   0.251451385  
O        0.112100678   0.889737480   0.754272636  
O        0.445459061   0.222958523   0.253263515  
O        0.445603623   0.222968024   0.752590893  
O        0.444482334   0.555805500   0.252652129  
O        0.444202271   0.555680267   0.753470551  
O        0.443567922   0.888596877   0.253037301  
O        0.444170493   0.888518503   0.753417027  
O        0.776449625   0.220423707   0.252965550  
O        0.778034045   0.222661727   0.753079474  
O        0.777995423   0.555673682   0.251847173  
O        0.778515432   0.555911872   0.752745025  
O        0.775723854   0.886807315   0.255988176  
O        0.777927126   0.888583019   0.750185098  

