&control
  calculation ='scf'
  restart_mode ='from_scratch',
  prefix       ='ZnO',
  outdir='./temp'
  pseudo_dir='./GBRV_PBEsol'
  disk_io='low'
  etot_conv_thr=1.D-7,
  forc_conv_thr=1.D-6,
  verbosity    ='high',
!  tprnfor=.t.
!  tstress=.t.
  nstep=200
!  tefield = .true.
!  dipfield = .true.

 /
&system
  nosym = .true.,
  ibrav= 0,
  nat=  72,
  ntyp= 3,
  tot_charge = 0.0
  ecutwfc =  60,
  ecutrho = 500,
  occupations='smearing', smearing='mv', degauss=0.001,
!  eamp = 0.0
!  edir = 3
!  emaxpos = 0.1
!  eopreg = 0.05

!  input_dft='hse', nqx1=2, nqx2=2, nqx3=1,
!  x_gamma_extrapolation = .true.
!  vdw_corr = DFT-D3
/

&electrons
    mixing_mode = 'plain'
    mixing_beta = 0.5,
    conv_thr =  1.0d-8
!   Startingpot = 'file'
!   Startingwfc = 'file'
/

&IONS
  upscale           = 100.D0,
/

&CELL
  cell_dynamics     = 'bfgs'
  press_conv_thr    = 0.5d0
  cell_dofree = 'all'
/

ATOMIC_SPECIES
Zn 65.38   zn_pbesol_v1.uspp.F.UPF
O  15.999  o_pbesol_v1.2.uspp.F.UPF
Mg 24.305   mg_pbesol_v1.4.uspp.F.UPF

K_POINTS {automatic}
4 4 4 0 0 0 

CELL_PARAMETERS (angstrom)
   9.748833799  -0.009047917  -0.000288781
  -4.882236168   8.442786028   0.002521343
  -0.000314651   0.002939158  10.26779073705

ATOMIC_POSITIONS (crystal)
Zn       0.222371698   0.111462039   0.195362980
Zn       0.222377271   0.110820273   0.694587054
Zn       0.223278823   0.443832817   0.194535121
Zn       0.222007644   0.445822041   0.694689407
Zn       0.224789082   0.781638931   0.193989202
Zn       0.220169197   0.775583338   0.694118876
Zn       0.554305202   0.110081631   0.195839895
Zn       0.556287946   0.111951030   0.695910394
Zn       0.555428810   0.444271047   0.193186014
Mg       0.555016086   0.442306234   0.696119627
Mg       0.555384544   0.780520617   0.195042584
Zn       0.555784557   0.776032282   0.692414157
Zn       0.888873904   0.110606135   0.193936889
Mg       0.887091458   0.109966722   0.696938392
Zn       0.886830835   0.443485676   0.193999860
Mg       0.889144629   0.444621400   0.695797273
Mg       0.888709116   0.777903181   0.193641863
Mg       0.886596990   0.776028458   0.694346810
Zn       0.109899616   0.222386705   0.446154898
Zn       0.113598213   0.224340635   0.944858079
Zn       0.110811554   0.556054207   0.443111316
Mg       0.112463076   0.555642461   0.947648682
Mg       0.111125525   0.889032879   0.444442685
Mg       0.113698014   0.891190796   0.943637252
Zn       0.446054235   0.224131824   0.445785540
Zn       0.444798794   0.221703207   0.946006333
Mg       0.444295296   0.553235509   0.443865208
Mg       0.444705319   0.556084258   0.944225372
Mg       0.444864044   0.890149615   0.447888038
Zn       0.444944323   0.887940732   0.943239269
Zn       0.778987105   0.223343815   0.444746118
Zn       0.776430054   0.221868993   0.944735298
Zn       0.776643480   0.554181939   0.444331414
Zn       0.778545469   0.556211476   0.943015491
Zn       0.778092559   0.889196743   0.443541072
Zn       0.775840752   0.886874929   0.943917410
O        0.222509090   0.111731068   0.002891285
O        0.222259916   0.111293683   0.501684786
O        0.223814102   0.445563745   0.002242247
O        0.222192584   0.445358883   0.501688704
O        0.222570829   0.778663292   0.001310929
O        0.221835608   0.778254359   0.501615914
O        0.554786650   0.109617712   0.003149441
O        0.556360894   0.112386088   0.502953077
O        0.555943091   0.445195201   0.000120394
O        0.555410240   0.444821476   0.504613625
O        0.554645427   0.776943165   0.003603418
O        0.554386649   0.776170429   0.499170617
O        0.889157900   0.110906420   0.000509926
O        0.887945019   0.110562245   0.504744246
O        0.889073880   0.444671544   0.001030139
O        0.889560715   0.445118790   0.503652189
O        0.890973419   0.778881565   0.001470386
O        0.889193943   0.777891020   0.501924013
O        0.110755034   0.222174365   0.253136821
O        0.110677487   0.222029662   0.751776102
O        0.111307363   0.556289617   0.249588303
O        0.110232336   0.554782845   0.755544480
O        0.110068605   0.888699577   0.252344609
O        0.109185129   0.887683122   0.751572116
O        0.444861362   0.222945504   0.252704154
O        0.443755502   0.220844564   0.753385448
O        0.446126109   0.557349300   0.251755872
O        0.444796332   0.554351552   0.752203139
O        0.444672132   0.889354878   0.255977365
O        0.444337408   0.887628810   0.749882624
O        0.777862966   0.221720174   0.252137538
O        0.778441760   0.222813429   0.752320427
O        0.777647756   0.555932183   0.251675304
O        0.777401628   0.554689186   0.750495877
O        0.777711908   0.888397816   0.250747203
O        0.777294005   0.887778154   0.751461413

