&control
  calculation ='nscf'
  restart_mode ='from_scratch',
  prefix       ='ZnO',
  outdir='./temp'
  pseudo_dir='./GBRV_PBEsol'
  disk_io='low'
  etot_conv_thr=1.D-7,
  forc_conv_thr=1.D-6,
  verbosity    ='high',
!  tprnfor=.t.
!  tstress=.t.
  nstep=200
nppstr=8
gdir = 3
lberry=.true.
!  tefield = .true.
!  dipfield = .true.

 /
&system
  nosym = .true.,
  ibrav= 0,
  nat=  72,
  ntyp= 3,
  tot_charge = 0.0
  ecutwfc =  60,
  ecutrho = 500,
!  occupations='smearing', smearing='mv', degauss=0.001,
!  eamp = 0.0
!  edir = 3
!  emaxpos = 0.1
!  eopreg = 0.05

!  input_dft='hse', nqx1=2, nqx2=2, nqx3=1,
!  x_gamma_extrapolation = .true.
!  vdw_corr = DFT-D3
/

&electrons
    mixing_mode = 'plain'
    mixing_beta = 0.5,
    conv_thr =  1.0d-8
!   Startingpot = 'file'
!   Startingwfc = 'file'
/

&IONS
  upscale           = 100.D0,
/

&CELL
  cell_dynamics     = 'bfgs'
  press_conv_thr    = 0.5d0
  cell_dofree = 'all'
/

ATOMIC_SPECIES
Zn 65.38   zn_pbesol_v1.uspp.F.UPF
O  15.999  o_pbesol_v1.2.uspp.F.UPF
Mg 24.305   mg_pbesol_v1.4.uspp.F.UPF

K_POINTS {automatic}
4 4 8 0 0 0 

CELL_PARAMETERS (angstrom)
   9.734857490  -0.011377777  -0.002414087
  -4.877266184   8.443328129   0.002072144
  -0.002584960   0.001066097  10.28060289729

ATOMIC_POSITIONS (crystal)
Zn       0.223707088   0.111442223   0.194522323
Zn       0.222742106   0.111778437   0.694361077
Zn       0.222169869   0.445325826   0.194215076
Zn       0.222019384   0.443576458   0.693997875
Zn       0.221840743   0.776947828   0.193945617
Zn       0.222009048   0.778232846   0.693971981
Zn       0.554091531   0.109857742   0.193719531
Mg       0.555069011   0.110246233   0.696758064
Zn       0.555362343   0.444811027   0.193787988
Mg       0.555423974   0.445326638   0.696732766
Mg       0.555108328   0.778523413   0.195961946
Zn       0.552669809   0.776384452   0.693431218
Zn       0.884758024   0.106464095   0.194684066
Zn       0.891394898   0.113964772   0.695093184
Mg       0.886238780   0.441900474   0.195212903
Zn       0.888740822   0.444401371   0.692852181
Mg       0.886751176   0.778175925   0.195612791
Zn       0.891344791   0.777478228   0.692763551
Zn       0.111620344   0.222931788   0.443333361
Mg       0.112538565   0.222783604   0.947245694
Mg       0.112663680   0.556311384   0.444732170
Mg       0.112068514   0.555905971   0.943718263
Zn       0.112937719   0.889795463   0.443230018
Mg       0.112589999   0.889788096   0.945525954
Zn       0.446074241   0.223318070   0.444709109
Zn       0.443369501   0.221965327   0.944169172
Zn       0.444251774   0.553810618   0.444234831
Zn       0.443768738   0.556849903   0.945128108
Zn       0.443899402   0.890693259   0.444505084
Zn       0.443814412   0.886796905   0.944985995
Zn       0.776633362   0.221195099   0.444588767
Zn       0.779429022   0.223517620   0.944893965
Zn       0.776341132   0.554550423   0.443361744
Zn       0.780619471   0.557117347   0.944642931
Mg       0.778449351   0.890564555   0.447148613
Zn       0.777158311   0.887356482   0.942096720
O        0.222110766   0.110879526   0.002499894
O        0.222475223   0.111660171   0.501824986
O        0.221432926   0.444651226   0.001998554
O        0.222111745   0.444243496   0.502004405
O        0.221252057   0.776792111   0.001537287
O        0.221843951   0.777757265   0.502102913
O        0.555489111   0.110811745   0.000821411
O        0.555380919   0.111344988   0.505124180
O        0.556282936   0.445279125   0.000607110
O        0.555678628   0.444632911   0.505056246
O        0.556428583   0.778190644   0.004467626
O        0.554651236   0.777644916   0.500542740
O        0.888750880   0.109947823   0.001868594
O        0.889813495   0.112408733   0.502888691
O        0.890617215   0.445196297   0.003856944
O        0.889355995   0.444661637   0.499980109
O        0.890184304   0.779136227   0.003802459
O        0.889375377   0.777996298   0.500176782
O        0.109958815   0.221451989   0.250390035
O        0.112357527   0.222552648   0.755368457
O        0.109117574   0.554464870   0.252994225
O        0.111095685   0.555427751   0.751672973
O        0.110297081   0.888412810   0.250449474
O        0.112073256   0.889785929   0.753906926
O        0.445600488   0.223047104   0.252645589
O        0.445573114   0.222951264   0.751794116
O        0.444503420   0.555743046   0.251893361
O        0.444235364   0.555744865   0.752803591
O        0.443557220   0.888647191   0.252270338
O        0.444218567   0.888501523   0.752736558
O        0.776360524   0.220325785   0.252208919
O        0.778064726   0.222754493   0.752410787
O        0.777874621   0.555624926   0.251108848
O        0.778611299   0.555942640   0.752106959
O        0.775714608   0.886785998   0.255837187
O        0.777881495   0.888510127   0.749056089

