Pnm21    P1 vo3  O12	                   
   1.00000000000000     
    10.0688943662506389   -0.3651206470222926    0.0134982317905806
     0.6431165979715107   10.0549718537797599    0.0134982448127738
     0.0059988665000000    0.0054264438352433    5.1012782738799514
   Hf   O 
    16    31
Direct
  0.5040434362374033  0.5040434312708184  0.0272375391392195
  0.5155517827288598  0.0075082123812589  0.9831927154371397
  0.0075081575356346  0.5155518106404343  0.9831927153753874
  0.0140523341736808  0.0140524221010984  0.9786964044710654
  0.2525696510669391  0.5021261772470573  0.4804634629956601
  0.2596425710993530  0.0125639628052457  0.4820408953834329
  0.7710637154579100  0.5034818653572416  0.4748971065733269
  0.7697085126311117  0.0202407115709867  0.4838973001406814
  0.2591318809020909  0.2591318948675098 -0.0213563430614353
  0.2675323206526308  0.7579578785193671 -0.0154171052630783
  0.7579578286629818  0.2675323236647669 -0.0154171052656662
  0.7705240386845128  0.7705240774574632  0.0260249329106741
  0.5021261493158375  0.2525696530512880  0.4804634629993328
  0.5034818012954766  0.7710637531793394  0.4748971064948659
  0.0125638758865410  0.2596425650864437  0.4820408954200660
  0.0202406817204458  0.7697084955180052  0.4838973000982479
  0.1390301405109060  0.3878747188912693  0.7690144893950069
  0.1357663542588217  0.8850240216822541  0.7716037893986502
  0.6509081932056128  0.4257658060982016  0.7921755403084784
  0.6266655556903169  0.8529581103645298  0.7861202204800046
  0.1276606377038126  0.3877811345261094  0.2674894714043342
  0.1455392046905433  0.8839629772134171  0.2696878909840902
  0.6311028600045379  0.3816066728454061  0.2920227943168489
  0.6420322871560735  0.8943574695651957  0.2865930138955243
  0.1363498131258360  0.1363498033944840  0.6964393170006239
  0.1380202366922225  0.6366927020962886  0.6982578543357052
  0.6366926648858742  0.1380202329303821  0.6982578543703365
  0.1362371235083954  0.1362371194995907  0.1927410230948191
  0.1383038033122152  0.6354522084212000  0.1878868441894316
  0.6354522236465860  0.1383037953727324  0.1878868442510394
  0.6379757733230397  0.6379757422057727  0.2401190507416034
  0.3925335075930417  0.3925336136261662  0.7109735538126628
  0.3819848232260116  0.8933512823536108  0.6978183605599594
  0.8933513491544746  0.3819849163430155  0.6978183605924564
  0.8836587507193411  0.8836587169589889  0.7118814414858418
  0.3778649872266393  0.3778650161986989  0.2104519034341869
  0.3949075271740882  0.8787355365867103  0.1943922410356256
  0.8787354716855352  0.3949075451220407  0.1943922410028968
  0.8951433984709172  0.8951434993481105  0.2123849509978348
  0.3878747188117943  0.1390301317343433  0.7690144893901046
  0.4257658161373002  0.6509082202707562  0.7921755402844419
  0.8850241024506890  0.1357663325419405  0.7716037894067649
  0.8529581551131691  0.6266655698677869  0.7861202205353062
  0.3877811065709540  0.1276606336869083  0.2674894713818426
  0.3816066608958574  0.6311028678718922  0.2920227942714674
  0.8839629603668132  0.1455392126974580  0.2696878909703315
  0.8943575146371568  0.6420322839664127  0.2865930138228444
 
  0.00000000E+00  0.00000000E+00  0.00000000E+00
  0.00000000E+00  0.00000000E+00  0.00000000E+00
  0.00000000E+00  0.00000000E+00  0.00000000E+00
  0.00000000E+00  0.00000000E+00  0.00000000E+00
  0.00000000E+00  0.00000000E+00  0.00000000E+00
  0.00000000E+00  0.00000000E+00  0.00000000E+00
  0.00000000E+00  0.00000000E+00  0.00000000E+00
  0.00000000E+00  0.00000000E+00  0.00000000E+00
  0.00000000E+00  0.00000000E+00  0.00000000E+00
  0.00000000E+00  0.00000000E+00  0.00000000E+00
  0.00000000E+00  0.00000000E+00  0.00000000E+00
  0.00000000E+00  0.00000000E+00  0.00000000E+00
  0.00000000E+00  0.00000000E+00  0.00000000E+00
  0.00000000E+00  0.00000000E+00  0.00000000E+00
  0.00000000E+00  0.00000000E+00  0.00000000E+00
  0.00000000E+00  0.00000000E+00  0.00000000E+00
  0.00000000E+00  0.00000000E+00  0.00000000E+00
  0.00000000E+00  0.00000000E+00  0.00000000E+00
  0.00000000E+00  0.00000000E+00  0.00000000E+00
  0.00000000E+00  0.00000000E+00  0.00000000E+00
  0.00000000E+00  0.00000000E+00  0.00000000E+00
  0.00000000E+00  0.00000000E+00  0.00000000E+00
  0.00000000E+00  0.00000000E+00  0.00000000E+00
  0.00000000E+00  0.00000000E+00  0.00000000E+00
  0.00000000E+00  0.00000000E+00  0.00000000E+00
  0.00000000E+00  0.00000000E+00  0.00000000E+00
  0.00000000E+00  0.00000000E+00  0.00000000E+00
  0.00000000E+00  0.00000000E+00  0.00000000E+00
  0.00000000E+00  0.00000000E+00  0.00000000E+00
  0.00000000E+00  0.00000000E+00  0.00000000E+00
  0.00000000E+00  0.00000000E+00  0.00000000E+00
  0.00000000E+00  0.00000000E+00  0.00000000E+00
  0.00000000E+00  0.00000000E+00  0.00000000E+00
  0.00000000E+00  0.00000000E+00  0.00000000E+00
  0.00000000E+00  0.00000000E+00  0.00000000E+00
  0.00000000E+00  0.00000000E+00  0.00000000E+00
  0.00000000E+00  0.00000000E+00  0.00000000E+00
  0.00000000E+00  0.00000000E+00  0.00000000E+00
  0.00000000E+00  0.00000000E+00  0.00000000E+00
  0.00000000E+00  0.00000000E+00  0.00000000E+00
  0.00000000E+00  0.00000000E+00  0.00000000E+00
  0.00000000E+00  0.00000000E+00  0.00000000E+00
  0.00000000E+00  0.00000000E+00  0.00000000E+00
  0.00000000E+00  0.00000000E+00  0.00000000E+00
  0.00000000E+00  0.00000000E+00  0.00000000E+00
  0.00000000E+00  0.00000000E+00  0.00000000E+00
  0.00000000E+00  0.00000000E+00  0.00000000E+00
