&control
  calculation ='relax'
  restart_mode ='from_scratch',
  prefix       ='ZnO',
  outdir='./temp'
  pseudo_dir='./GBRV_PBEsol'
  disk_io='low'
  etot_conv_thr=1.D-7,
  forc_conv_thr=1.D-6,
  verbosity    ='high',
  tprnfor=.t.
  tstress=.t.
  nstep=200
!  tefield = .true.
!  dipfield = .true.

 /
&system
  nosym = .true.,
  ibrav= 0,
  nat=  72,
  ntyp= 3,
  tot_charge = 0.0
  ecutwfc =  60,
  ecutrho = 500,
  occupations='smearing', smearing='mv', degauss=0.001,
!  eamp = 0.0
!  edir = 3
!  emaxpos = 0.1
!  eopreg = 0.05

!  input_dft='hse', nqx1=2, nqx2=2, nqx3=1,
!  x_gamma_extrapolation = .true.
!  vdw_corr = DFT-D3
/

&electrons
    mixing_mode = 'plain'
    mixing_beta = 0.5,
    conv_thr =  1.0d-8
!   Startingpot = 'file'
!   Startingwfc = 'file'
/

&IONS
  upscale           = 100.D0,
/

&CELL
  cell_dynamics     = 'bfgs'
  press_conv_thr    = 0.5d0
  cell_dofree = 'all'
/

ATOMIC_SPECIES
Zn 65.38   zn_pbesol_v1.uspp.F.UPF
O  15.999  o_pbesol_v1.2.uspp.F.UPF
Mg 24.305   mg_pbesol_v1.4.uspp.F.UPF

K_POINTS {automatic}
4 4 4 0 0 0 

CELL_PARAMETERS (angstrom)
   9.734857490  -0.011377777  -0.002414087
  -4.877266184   8.443328129   0.002072144
  -0.002584960   0.001066097  10.28060289729

ATOMIC_POSITIONS (crystal)
Zn       0.223604976   0.111413935   0.193752778
Zn       0.222755850   0.111772766   0.693708592
Zn       0.222168835   0.445184040   0.193530790
Zn       0.222001417   0.443704740   0.693239692
Zn       0.221887572   0.777100992   0.193336386
Zn       0.221995646   0.778104222   0.693160237
Zn       0.554095956   0.109845393   0.193335290
Mg       0.555046811   0.110211833   0.695877311
Zn       0.555337827   0.444789745   0.193454306
Mg       0.555372993   0.445314931   0.695786086
Mg       0.555000876   0.778490154   0.195037951
Zn       0.552797746   0.776453443   0.693021902
Zn       0.884995188   0.106719250   0.194081200
Zn       0.891281687   0.113794317   0.694266111
Mg       0.886293508   0.441901005   0.194297711
Zn       0.888865811   0.444455522   0.692432835
Mg       0.886952562   0.778240809   0.194783992
Zn       0.891236134   0.777543536   0.692213705
Zn       0.111648223   0.222919637   0.442954749
Mg       0.112551439   0.222802140   0.946350095
Mg       0.112541858   0.556251659   0.443950963
Mg       0.112154855   0.555959334   0.943238868
Zn       0.112863080   0.889768069   0.442794392
Mg       0.112642294   0.889790456   0.944670433
Zn       0.445978671   0.223251551   0.443870199
Zn       0.443520278   0.222034844   0.943582105
Zn       0.444255775   0.553932152   0.443576985
Zn       0.443839902   0.556720486   0.944371831
Zn       0.443924579   0.890579199   0.443854842
Zn       0.443871986   0.886985465   0.944238813
Zn       0.776711118   0.221338080   0.443931736
Zn       0.779196091   0.223348122   0.944141639
Zn       0.776478350   0.554586795   0.442693333
Zn       0.780307364   0.556957383   0.943843421
Mg       0.778365712   0.890440983   0.446094051
Zn       0.777147819   0.887434653   0.941737661
O        0.222105158   0.110881254   0.003138004
O        0.222534455   0.111659788   0.502605106
O        0.221503860   0.444602724   0.002728094
O        0.222132793   0.444310423   0.502686404
O        0.221332127   0.776907956   0.002330614
O        0.221873303   0.777728883   0.502739310
O        0.555466820   0.110813217   0.001867647
O        0.555366711   0.111336352   0.505450003
O        0.556222515   0.445226287   0.001691836
O        0.555675922   0.444614637   0.505313885
O        0.556264934   0.778105125   0.004787110
O        0.554728099   0.777672203   0.501568509
O        0.888821419   0.110102438   0.002665527
O        0.889675911   0.112259507   0.503488730
O        0.890489833   0.445134042   0.004169688
O        0.889317954   0.444654555   0.501004511
O        0.890208665   0.779037511   0.004195426
O        0.889285146   0.777979556   0.501089853
O        0.110049074   0.221466883   0.251442463
O        0.112307130   0.222576467   0.755668501
O        0.109179847   0.554487867   0.253443372
O        0.111167791   0.555478651   0.752437292
O        0.110371123   0.888497636   0.251451572
O        0.112101182   0.889737357   0.754271914
O        0.445459393   0.222958818   0.253264379
O        0.445603974   0.222968148   0.752590161
O        0.444482600   0.555806991   0.252652494
O        0.444202106   0.555680441   0.753470344
O        0.443567910   0.888596141   0.253038398
O        0.444169531   0.888518427   0.753417076
O        0.776449174   0.220423078   0.252965470
O        0.778033247   0.222660065   0.753078787
O        0.777995488   0.555673867   0.251847078
O        0.778515045   0.555912203   0.752744516
O        0.775723269   0.886806837   0.255988646
O        0.777925698   0.888582020   0.750184289

