Image 20   O25
1.0
       10.5313043594         0.0000000000         0.0000000000
        0.0000000000        10.0965757370         0.0000000000
        0.0000000000         0.0000000000         5.0768351555
   Hf    O
   16   31
Direct
     0.000000000         0.000000000         0.000000000
     0.000000000         0.500000000         0.000000000
     0.500000000         0.000000000         0.000000000
     0.500000000         0.500000000         0.000000000
     0.249976999         0.233455011         0.000006000
     0.249976999         0.733455011         0.000006000
     0.749976976         0.233455011         0.000006000
     0.749976976         0.733455011         0.000006000
     0.467132014         0.233455011         0.500006011
     0.467132014         0.733455011         0.500006011
     0.967132014         0.233455011         0.500006011
     0.967132014         0.733455011         0.500006011
     0.217108990        -0.000000000         0.500000000
     0.217108990         0.500000000         0.500000000
     0.717108944        -0.000000000         0.500000000
     0.717108944         0.500000000         0.500000000
     0.368530997         0.098163500         0.750253994
     0.368530997         0.598163488         0.750253994
     0.868530952         0.098163500         0.750253994
     0.868530952         0.598163488         0.750253994
     0.118548497         0.135363001         0.750061966
     0.118548497         0.635362978         0.750061966
     0.618548497         0.135363001         0.750061966
     0.618548497         0.635362978         0.750061966
     0.348578015         0.098163500         0.250253994
     0.348578015         0.598163488         0.250253994
     0.848577992         0.098163500         0.250253994
     0.848577992         0.598163488         0.250253994
     0.098560492         0.135363001         0.250061990
     0.098560492         0.635362978         0.250061990
     0.598560492         0.135363001         0.250061990
     0.598560492         0.635362978         0.250061990
     0.301055011         0.332964982         0.643490003
     0.301055011         0.832965005         0.643490003
     0.801055033         0.332964982         0.643490003
     0.801055033         0.832965005         0.643490003
     0.051007503         0.400537989         0.643441022
     0.051007503         0.900537989         0.643441022
     0.551007514         0.400537989         0.643441022
     0.551007514         0.900537989         0.643441022
     0.416053503         0.832965005         0.143490003
     0.916053549         0.332964982         0.143490003
     0.916053549         0.832965005         0.143490003
     0.166101498         0.400537989         0.143441010
     0.166101498         0.900537989         0.143441010
     0.666101521         0.400537989         0.143441010
     0.666101521         0.900537989         0.143441010
