Image 1  
1.0
       10.1462736130         0.0000000000         0.0000000000
        0.0000000000        10.1459398270         0.0000000000
        0.0000000000         0.0000000000         5.2243509293
   Hf    O
   16   32
Direct
     0.000000000         0.000000000         0.000000000
     0.000000000         0.500000000         0.000000000
     0.500000000         0.000000000         0.000000000
     0.500000000         0.500000000         0.000000000
     0.250000000         0.499964000         0.499976999
     0.250000000         0.999964000         0.499976999
     0.749999977         0.499964000         0.499976999
     0.749999977         0.999964000         0.499976999
     0.249999013         0.249992504         0.000029000
     0.249999013         0.749992504         0.000029000
     0.749998990         0.249992504         0.000029000
     0.749998990         0.749992504         0.000029000
     0.499998966         0.249990483         0.499960023
     0.499998966         0.749990483         0.499960023
     0.999998966         0.249990483         0.499960023
     0.999998966         0.749990483         0.499960023
     0.124949502         0.374882024         0.804856001
     0.124949502         0.874882000         0.804856001
     0.624949538         0.374882024         0.804856001
     0.624949538         0.874882000         0.804856001
     0.125232996         0.374736988         0.304799002
     0.125232996         0.874737059         0.304799002
     0.625232972         0.374736988         0.304799002
     0.625232972         0.874737059         0.304799002
     0.124934005         0.124873494         0.695145003
     0.124934005         0.624873517         0.695145003
     0.624934029         0.124873494         0.695145003
     0.624934029         0.624873517         0.695145003
     0.125231504         0.124741500         0.195202002
     0.125231504         0.624741500         0.195202002
     0.625231515         0.124741500         0.195202002
     0.625231515         0.624741500         0.195202002
     0.374951512         0.374877512         0.695134005
     0.374951512         0.874877488         0.695134005
     0.874951441         0.374877512         0.695134005
     0.874951441         0.874877488         0.695134005
     0.375234993         0.374743004         0.195185003
     0.375234993         0.874742981         0.195185003
     0.875234923         0.374743004         0.195185003
     0.875234923         0.874742981         0.195185003
     0.374931515         0.124879498         0.804839024
     0.374931515         0.624879486         0.804839024
     0.874931515         0.124879498         0.804839024
     0.874931515         0.624879486         0.804839024
     0.375229518         0.124737000         0.304789007
     0.375229518         0.624737035         0.304789007
     0.875229471         0.124737000         0.304789007
     0.875229471         0.624737035         0.304789007
