T1  O12                                 
   1.00000000000000     
    10.1322183412475777    0.0340352849343059   -0.0007081983545880
     0.0340359700420900   10.1322198683153406    0.0004136537602640
    -0.0003651481532126    0.0002144723986442    5.2178705961510072
   Hf   O 
    16    31
Direct
  0.0006259327667052  0.0004687887835324 -0.0043119730691848
 -0.0007135900410740  0.4980647039054123 -0.0010056326387178
  0.4982182771532058 -0.0008754164215926 -0.0008880413454660
  0.4996391690388445  0.4994951655645036  0.0099355370811674
  0.2490590729490012  0.4983190138455830  0.4963224558179696
  0.2513194740166559 -0.0013359177039096  0.4947711415616864
  0.7441376605245414  0.5058124454294074  0.5132130869536108
  0.7516740057184801  0.0009110344521255  0.4962901814820100
  0.2494943697693058  0.2493397517455800 -0.0043258741253975
  0.2508336520968855  0.7517511369458809 -0.0009034456942926
  0.7519027029076322  0.2506741618409483 -0.0010215833137906
  0.7504450346290054  0.7503031835588928  0.0099764251168464
  0.4984532266220376  0.2489876860226382  0.4963243979720978
  0.5058065583608997  0.7441460941843693  0.5131598067305456
 -0.0012472723649171  0.2512332002410790  0.4947068045230318
  0.0009850767732988  0.7515421203454544  0.4962927949010232
  0.1263250827002600  0.3756313785787969  0.7985997847340626
  0.1236599609947358  0.8740616939683199  0.7986715184077106
  0.6315836127721760  0.3854236819280208  0.8098640822054122
  0.6183644223445007  0.8642678149361266  0.8099937496859391
  0.1256544328817976  0.3750516655203948  0.2994237699586165
  0.1246489040183913  0.8746027329005798  0.2994894163433020
  0.6251313772702636  0.3750556590855261  0.3105877182878183
  0.6251681466309508  0.8746194516410616  0.3107006272003865
  0.1250218662055997  0.1248663693815752  0.6907259208089139
  0.1249775639912099  0.6248432174219272  0.6942358114029638
  0.6250320925145401  0.1248655186330997  0.6942354989203622
  0.1251643298439331  0.1248078823180832  0.1895198968327931
  0.1250921185730867  0.6248395102965728  0.1917147324687848
  0.6251555305739330  0.1248264164862296  0.1917141362792075
  0.6250738925978794  0.6248486817596491  0.2056325243075365
  0.3775438506327715  0.3774113986162334  0.6989433113745017
  0.3741576524861990  0.8756927725966330  0.6931066612885524
  0.8757899814389815  0.3740603999931669  0.6928466390057881
  0.8724475134473623  0.8723151980068482  0.6989531830517234
  0.3736113608141520  0.3732732439744946  0.1981874000405505
  0.3710714551381660  0.8788877484459390  0.1918193708890139
  0.8793232609544744  0.3706358640928983  0.1915001825811208
  0.8766862849799549  0.8763486237263554  0.1981906264255817
  0.3758185160160127  0.1262047722977865  0.7986741953792604
  0.3855630974129860  0.6314712054543458  0.8099004879431594
  0.8742489109238579  0.1235398331868296  0.7985946772785160
  0.8644080434064191  0.6182520974568946  0.8099553569649761
  0.3753833219611726  0.1253102439103007  0.2994960946352050
  0.3753009621183840  0.6248023371496797  0.3106286216830326
  0.8749343625119234  0.1243049733902668  0.2994151096205855
  0.8748644339234302  0.6248390631054321  0.3106580850414662
 
  0.00000000E+00  0.00000000E+00  0.00000000E+00
  0.00000000E+00  0.00000000E+00  0.00000000E+00
  0.00000000E+00  0.00000000E+00  0.00000000E+00
  0.00000000E+00  0.00000000E+00  0.00000000E+00
  0.00000000E+00  0.00000000E+00  0.00000000E+00
  0.00000000E+00  0.00000000E+00  0.00000000E+00
  0.00000000E+00  0.00000000E+00  0.00000000E+00
  0.00000000E+00  0.00000000E+00  0.00000000E+00
  0.00000000E+00  0.00000000E+00  0.00000000E+00
  0.00000000E+00  0.00000000E+00  0.00000000E+00
  0.00000000E+00  0.00000000E+00  0.00000000E+00
  0.00000000E+00  0.00000000E+00  0.00000000E+00
  0.00000000E+00  0.00000000E+00  0.00000000E+00
  0.00000000E+00  0.00000000E+00  0.00000000E+00
  0.00000000E+00  0.00000000E+00  0.00000000E+00
  0.00000000E+00  0.00000000E+00  0.00000000E+00
  0.00000000E+00  0.00000000E+00  0.00000000E+00
  0.00000000E+00  0.00000000E+00  0.00000000E+00
  0.00000000E+00  0.00000000E+00  0.00000000E+00
  0.00000000E+00  0.00000000E+00  0.00000000E+00
  0.00000000E+00  0.00000000E+00  0.00000000E+00
  0.00000000E+00  0.00000000E+00  0.00000000E+00
  0.00000000E+00  0.00000000E+00  0.00000000E+00
  0.00000000E+00  0.00000000E+00  0.00000000E+00
  0.00000000E+00  0.00000000E+00  0.00000000E+00
  0.00000000E+00  0.00000000E+00  0.00000000E+00
  0.00000000E+00  0.00000000E+00  0.00000000E+00
  0.00000000E+00  0.00000000E+00  0.00000000E+00
  0.00000000E+00  0.00000000E+00  0.00000000E+00
  0.00000000E+00  0.00000000E+00  0.00000000E+00
  0.00000000E+00  0.00000000E+00  0.00000000E+00
  0.00000000E+00  0.00000000E+00  0.00000000E+00
  0.00000000E+00  0.00000000E+00  0.00000000E+00
  0.00000000E+00  0.00000000E+00  0.00000000E+00
  0.00000000E+00  0.00000000E+00  0.00000000E+00
  0.00000000E+00  0.00000000E+00  0.00000000E+00
  0.00000000E+00  0.00000000E+00  0.00000000E+00
  0.00000000E+00  0.00000000E+00  0.00000000E+00
  0.00000000E+00  0.00000000E+00  0.00000000E+00
  0.00000000E+00  0.00000000E+00  0.00000000E+00
  0.00000000E+00  0.00000000E+00  0.00000000E+00
  0.00000000E+00  0.00000000E+00  0.00000000E+00
  0.00000000E+00  0.00000000E+00  0.00000000E+00
  0.00000000E+00  0.00000000E+00  0.00000000E+00
  0.00000000E+00  0.00000000E+00  0.00000000E+00
  0.00000000E+00  0.00000000E+00  0.00000000E+00
  0.00000000E+00  0.00000000E+00  0.00000000E+00
