&control
  calculation ='nscf'
  restart_mode ='from_scratch',
  prefix       ='ZnO',
  outdir='./temp'
  pseudo_dir='./GBRV_PBEsol'
  disk_io='low'
  etot_conv_thr=1.D-7,
  forc_conv_thr=1.D-6,
  verbosity    ='high',
!  tprnfor=.t.
!  tstress=.t.
  nstep=200
nppstr=8
gdir = 3
lberry=.true.
!  tefield = .true.
!  dipfield = .true.

 /
&system
  nosym = .true.,
  ibrav= 0,
  nat=  72,
  ntyp= 3,
  tot_charge = 0.0
  ecutwfc =  60,
  ecutrho = 500,
!  occupations='smearing', smearing='mv', degauss=0.001,
!  eamp = 0.0
!  edir = 3
!  emaxpos = 0.1
!  eopreg = 0.05

!  input_dft='hse', nqx1=2, nqx2=2, nqx3=1,
!  x_gamma_extrapolation = .true.
!  vdw_corr = DFT-D3
/

&electrons
    mixing_mode = 'plain'
    mixing_beta = 0.5,
    conv_thr =  1.0d-8
!   Startingpot = 'file'
!   Startingwfc = 'file'
/

&IONS
  upscale           = 100.D0,
/

&CELL
  cell_dynamics     = 'bfgs'
  press_conv_thr    = 0.5d0
  cell_dofree = 'all'
/

ATOMIC_SPECIES
Zn 65.38   zn_pbesol_v1.uspp.F.UPF
O  15.999  o_pbesol_v1.2.uspp.F.UPF
Mg 24.305   mg_pbesol_v1.4.uspp.F.UPF

K_POINTS {automatic}
4 4 8 0 0 0 

CELL_PARAMETERS (angstrom)
   9.727221948   0.004474116  -0.000151625
  -4.859720513   8.425856334   0.001991961
  -0.000166011   0.002370583  10.350072160135

ATOMIC_POSITIONS (crystal)
Zn       0.221731094   0.112050293   0.194357541
Zn       0.223536422   0.109503365   0.694197107
Zn       0.222737958   0.444377221   0.193259404
Zn       0.223198450   0.445680535   0.693142539
Zn       0.223107987   0.778503919   0.195052365
Zn       0.222852468   0.777862151   0.695111555
Zn       0.554305838   0.111043091   0.194491685
Zn       0.555665568   0.110254199   0.694350023
Zn       0.555399385   0.445788953   0.191916212
Mg       0.556052513   0.442186272   0.694703869
Mg       0.556595308   0.779913411   0.194320853
Zn       0.555602366   0.777326536   0.692381605
Zn       0.890729767   0.111407519   0.193595785
Zn       0.886374329   0.110385355   0.693972657
Mg       0.889832036   0.446585292   0.195973327
Zn       0.888385605   0.443899622   0.692226856
Zn       0.888858437   0.778771198   0.193349305
Mg       0.890247992   0.777923443   0.695637546
Mg       0.109724729   0.221558830   0.445935447
Zn       0.110207642   0.221672411   0.942824199
Zn       0.112865598   0.555669477   0.444545092
Zn       0.108734620   0.554324083   0.944640378
Zn       0.110894212   0.888550325   0.444116035
Zn       0.112346434   0.889332177   0.944626701
Zn       0.444844974   0.223148785   0.444161464
Zn       0.443850607   0.220523349   0.944875555
Mg       0.444199980   0.554859066   0.443184837
Mg       0.443562701   0.556590645   0.942733586
Zn       0.444317667   0.889928171   0.444467906
Zn       0.444903616   0.888813057   0.944654863
Zn       0.776450075   0.220419087   0.442463872
Mg       0.777802841   0.222654930   0.944602953
Zn       0.776097123   0.556252743   0.443432729
Zn       0.779103313   0.554053523   0.943213753
Zn       0.778694435   0.889428200   0.444034295
Zn       0.776377851   0.889211368   0.943775493
O        0.221743705   0.111324158   0.003406604
O        0.222086800   0.111032698   0.502718429
O        0.221920935   0.444009302   0.001950022
O        0.223000764   0.443711375   0.502206952
O        0.222317822   0.777038343   0.003442357
O        0.222202757   0.777665642   0.503784637
O        0.555940246   0.110780640   0.003149426
O        0.555464972   0.111607797   0.503264623
O        0.555033394   0.444834489   0.000194043
O        0.554873804   0.444703703   0.504369656
O        0.554999901   0.776944540   0.004266083
O        0.555286393   0.777147613   0.500715842
O        0.888679433   0.111216939   0.002360537
O        0.888095867   0.110949744   0.503020073
O        0.888176995   0.443154310   0.005596012
O        0.888543287   0.444201381   0.500433403
O        0.888632762   0.777480700   0.001467672
O        0.889077495   0.777881444   0.504884302
O        0.111473148   0.223149063   0.255229748
O        0.110840268   0.221566277   0.750936744
O        0.111855732   0.556088012   0.253165792
O        0.110411601   0.554856403   0.753030961
O        0.110969830   0.889252318   0.252846305
O        0.111523026   0.888442165   0.753706399
O        0.444565127   0.223778127   0.252735349
O        0.444592936   0.221162112   0.753555413
O        0.445292228   0.557522454   0.252298618
O        0.445603443   0.554802920   0.752107389
O        0.444788499   0.889631822   0.253438349
O        0.445023582   0.888111655   0.753209268
O        0.778143998   0.222940366   0.250979082
O        0.777583300   0.222790829   0.754258456
O        0.777286336   0.556535585   0.252401488
O        0.778022753   0.555479757   0.751945956
O        0.778233039   0.889668831   0.252787866
O        0.777521885   0.888083881   0.752496753

