&control
  calculation ='scf'
  restart_mode ='from_scratch',
  prefix       ='ZnO',
  outdir='./temp'
  pseudo_dir='./GBRV_PBEsol'
  disk_io='low'
  etot_conv_thr=1.D-7,
  forc_conv_thr=1.D-6,
  verbosity    ='high',
!  tprnfor=.t.
!  tstress=.t.
  nstep=200
!  tefield = .true.
!  dipfield = .true.

 /
&system
  nosym = .true.,
  ibrav= 0,
  nat=  72,
  ntyp= 3,
  tot_charge = 0.0
  ecutwfc =  60,
  ecutrho = 500,
  occupations='smearing', smearing='mv', degauss=0.001,
!  eamp = 0.0
!  edir = 3
!  emaxpos = 0.1
!  eopreg = 0.05

!  input_dft='hse', nqx1=2, nqx2=2, nqx3=1,
!  x_gamma_extrapolation = .true.
!  vdw_corr = DFT-D3
/

&electrons
    mixing_mode = 'plain'
    mixing_beta = 0.5,
    conv_thr =  1.0d-8
!   Startingpot = 'file'
!   Startingwfc = 'file'
/

&IONS
  upscale           = 100.D0,
/

&CELL
  cell_dynamics     = 'bfgs'
  press_conv_thr    = 0.5d0
  cell_dofree = 'all'
/

ATOMIC_SPECIES
Zn 65.38   zn_pbesol_v1.uspp.F.UPF
O  15.999  o_pbesol_v1.2.uspp.F.UPF
Mg 24.305   mg_pbesol_v1.4.uspp.F.UPF

K_POINTS {automatic}
4 4 4 0 0 0 

CELL_PARAMETERS (angstrom)
   9.760484460  -0.006522928   0.006380063
  -4.885876579   8.462586866  -0.002526486
   0.006803180   0.000805560  10.23468266898

ATOMIC_POSITIONS (crystal)
Zn       0.219624097   0.110167206   0.196717501
Zn       0.553995477   0.443725747   0.193738917
Zn       0.891677943   0.444576728   0.193914719
Zn       0.222974134   0.110964428   0.696801511
Zn       0.556446856   0.111314788   0.693590604
Zn       0.887245357   0.111745230   0.692145828
Zn       0.222755794   0.446282024   0.693549445
Zn       0.888343910   0.444874855   0.694650297
Zn       0.554118354   0.777686359   0.694332419
Zn       0.887755677   0.775196295   0.691920711
Zn       0.443738183   0.224009819   0.445784261
Zn       0.778775131   0.223456011   0.443160592
Zn       0.444366415   0.554331395   0.444427215
Zn       0.776341873   0.553876411   0.442624702
Zn       0.441267577   0.887054247   0.443275348
Zn       0.109682446   0.221952297   0.944561007
Zn       0.443243901   0.219546152   0.945974214
Zn       0.443105543   0.556127861   0.945721551
Zn       0.108877113   0.887557322   0.944478880
Zn       0.445855090   0.890321866   0.946387263
Mg       0.554297194   0.112368558   0.198138006
Mg       0.890854651   0.110685416   0.196428528
Mg       0.222929329   0.441566053   0.196080630
Mg       0.222479645   0.779549341   0.193700573
Mg       0.556300445   0.778182320   0.196496539
Mg       0.890073509   0.779812797   0.196910244
Mg       0.555845955   0.444621295   0.696811236
Mg       0.224286506   0.778839291   0.695637500
Mg       0.113531534   0.222882279   0.448195385
Mg       0.111303953   0.556334712   0.444467750
Mg       0.113783994   0.890272130   0.446835162
Mg       0.775459156   0.887855483   0.446258006
Mg       0.777942845   0.221987866   0.946159650
Mg       0.111812533   0.554056355   0.944069349
Mg       0.780308914   0.556617866   0.947404582
Mg       0.779607465   0.889554938   0.942541092
O        0.220452942   0.110032486   0.002279343
O        0.556381004   0.111758954   0.005315942
O        0.887594676   0.109891538   0.003307735
O        0.221428582   0.443467360   0.003686396
O        0.555663406   0.444232435  -0.000694070
O        0.890199379   0.444256314   0.000130695
O        0.221379324   0.776544160   0.000466175
O        0.557590516   0.778835064   0.003229697
O        0.887691699   0.777877600   0.004197276
O        0.222303621   0.110910000   0.503494087
O        0.555349167   0.111044884   0.499455466
O        0.889224753   0.110998377   0.498981102
O        0.221588870   0.444956999   0.499847258
O        0.556061349   0.445185119   0.504428801
O        0.888863724   0.444802872   0.501153096
O        0.220676261   0.776674880   0.503207977
O        0.553534741   0.777075766   0.500541265
O        0.889059387   0.777810907   0.498064805
O        0.110804568   0.222087801   0.255734820
O        0.442908743   0.222856642   0.252495767
O        0.778197316   0.221726830   0.249187071
O        0.114523285   0.557050829   0.251229885
O        0.444974058   0.556060833   0.251146944
O        0.778165220   0.555248725   0.248594293
O        0.111362504   0.888139035   0.254389979
O        0.444212735   0.889108490   0.250017305
O        0.777777166   0.889127494   0.253205971
O        0.110561865   0.222826792   0.750168219
O        0.445340301   0.222157301   0.752285521
O        0.777789044   0.222612031   0.753230408
O        0.111617082   0.556715031   0.751375303
O        0.444379204   0.555816700   0.751920059
O        0.777414212   0.555518725   0.754444680
O        0.110246068   0.887691668   0.750223254
O        0.445646657   0.890214866   0.752555704
O        0.778028071   0.888730752   0.749410556

