PO1 vo3 O21                             
   1.00000000000000     
    10.0833714925056270    0.0117472059616482    0.0025096250050153
     0.0118197862706076   10.1500620619235740   -0.0209765701367016
     0.0013117872420857   -0.0108745919425116    5.2570307853382605
   Hf   O 
    16    31
Direct
  0.0001619142167854 -0.0004457756165839  0.0002194697019648
 -0.0003842217886356  0.4999532823978263 -0.0027161419706737
  0.4997945507773494  0.0033329309795085  0.0011107312151262
  0.4992140873029467  0.5013839172274653  0.0006027621533293
  0.2327573144741421 -0.0007712864036380  0.5005648291193714
  0.2356357735522211  0.4985360939553367  0.4951104561048867
  0.7343394237371953  0.0000386000828928  0.5006335335004807
  0.7325154208252627  0.5003000980711828  0.4991392709449072
  0.2336575262456745  0.2506525480110537  0.9378152850748703
  0.2338362962746284  0.7493666596664810  0.9333754828207755
  0.7319324281080474  0.2503994904707276  0.9349944192173243
  0.7328146962045681  0.7508840396668118  0.9331961833851905
 -0.0003000843156589  0.2497436994601824  0.4347991327960568
  0.0002497678827174  0.7489732176262295  0.4333077575113153
  0.5000106543895534  0.2489543522738827  0.4371088468241824
  0.5011975931670282  0.7521554457741760  0.4328775698025478
  0.0980996152088152  0.3740125725778977  0.7351085431922095
  0.0980649557385732  0.8747338270216225  0.7361967665731944
  0.5976786652741288  0.3757476111883513  0.7391701085669748
  0.5973935853587151  0.8763881258197737  0.7354562191027133
  0.1375917620118180  0.3726417091192734  0.2335726311667884
  0.1356689162290438  0.8741093122520079  0.2363313717434558
  0.6280132783533945  0.3755778670831533  0.2376418938358880
  0.6360169892794940  0.8762091500311147  0.2347969502050750
  0.0982180320694432  0.1252191236828981  0.6984683888503619
  0.0984008730742076  0.6242529195056348  0.6942257081124581
  0.5986215481841798  0.1251798486860649  0.6997844305335992
  0.5979019980592979  0.6262022857941379  0.6956059377587943
  0.1361490214479377  0.1244562400962679  0.1979380701204101
  0.1355882267536884  0.6237312281370136  0.1948684332579442
  0.6376033164380456  0.1254265225114093  0.2019673852426367
  0.6371193331911179  0.6255850985499273  0.1974919751433587
  0.3350028093771756  0.3216014244257731  0.6067353034441978
  0.3327571974082740  0.8211155795190138  0.6018266448283528
  0.8312829559389014  0.3208828171989070  0.6009462316436704
  0.8328376929969836  0.8215356090202039  0.6011187900288667
  0.4007280999279028  0.8227262375675587  0.1012456832513640
  0.8992627276160766  0.3224806999311039  0.1029874636527047
  0.9009386372527232  0.8210686766118332  0.1007380715936888
  0.3320993111915455  0.0727655615433329  0.8336251801928053
  0.3317452177210248  0.5697896427320129  0.8322411958328025
  0.8331852472248680  0.0721131505767848  0.8334982754715005
  0.8327401557250659  0.5717055844405710  0.8303639962470646
  0.4004775395951703  0.0723431752198781  0.3358578570324243
  0.4018767374704657  0.5725968694263088  0.3317461562324794
  0.9019936571360290  0.0711087224373882  0.3339382356093792
  0.9008465826920371  0.5705267886492620  0.3315796633311638
 
  0.00000000E+00  0.00000000E+00  0.00000000E+00
  0.00000000E+00  0.00000000E+00  0.00000000E+00
  0.00000000E+00  0.00000000E+00  0.00000000E+00
  0.00000000E+00  0.00000000E+00  0.00000000E+00
  0.00000000E+00  0.00000000E+00  0.00000000E+00
  0.00000000E+00  0.00000000E+00  0.00000000E+00
  0.00000000E+00  0.00000000E+00  0.00000000E+00
  0.00000000E+00  0.00000000E+00  0.00000000E+00
  0.00000000E+00  0.00000000E+00  0.00000000E+00
  0.00000000E+00  0.00000000E+00  0.00000000E+00
  0.00000000E+00  0.00000000E+00  0.00000000E+00
  0.00000000E+00  0.00000000E+00  0.00000000E+00
  0.00000000E+00  0.00000000E+00  0.00000000E+00
  0.00000000E+00  0.00000000E+00  0.00000000E+00
  0.00000000E+00  0.00000000E+00  0.00000000E+00
  0.00000000E+00  0.00000000E+00  0.00000000E+00
  0.00000000E+00  0.00000000E+00  0.00000000E+00
  0.00000000E+00  0.00000000E+00  0.00000000E+00
  0.00000000E+00  0.00000000E+00  0.00000000E+00
  0.00000000E+00  0.00000000E+00  0.00000000E+00
  0.00000000E+00  0.00000000E+00  0.00000000E+00
  0.00000000E+00  0.00000000E+00  0.00000000E+00
  0.00000000E+00  0.00000000E+00  0.00000000E+00
  0.00000000E+00  0.00000000E+00  0.00000000E+00
  0.00000000E+00  0.00000000E+00  0.00000000E+00
  0.00000000E+00  0.00000000E+00  0.00000000E+00
  0.00000000E+00  0.00000000E+00  0.00000000E+00
  0.00000000E+00  0.00000000E+00  0.00000000E+00
  0.00000000E+00  0.00000000E+00  0.00000000E+00
  0.00000000E+00  0.00000000E+00  0.00000000E+00
  0.00000000E+00  0.00000000E+00  0.00000000E+00
  0.00000000E+00  0.00000000E+00  0.00000000E+00
  0.00000000E+00  0.00000000E+00  0.00000000E+00
  0.00000000E+00  0.00000000E+00  0.00000000E+00
  0.00000000E+00  0.00000000E+00  0.00000000E+00
  0.00000000E+00  0.00000000E+00  0.00000000E+00
  0.00000000E+00  0.00000000E+00  0.00000000E+00
  0.00000000E+00  0.00000000E+00  0.00000000E+00
  0.00000000E+00  0.00000000E+00  0.00000000E+00
  0.00000000E+00  0.00000000E+00  0.00000000E+00
  0.00000000E+00  0.00000000E+00  0.00000000E+00
  0.00000000E+00  0.00000000E+00  0.00000000E+00
  0.00000000E+00  0.00000000E+00  0.00000000E+00
  0.00000000E+00  0.00000000E+00  0.00000000E+00
  0.00000000E+00  0.00000000E+00  0.00000000E+00
  0.00000000E+00  0.00000000E+00  0.00000000E+00
  0.00000000E+00  0.00000000E+00  0.00000000E+00
