PO1 vo4 O12                             
   1.00000000000000     
    10.0863539049603101    0.0881773234004156   -0.0417812082501229
     0.0878323360731053   10.0782122256768201   -0.0821158045571204
    -0.0219373313943772   -0.0430541436223155    5.2050536317445779
   Hf   O 
    16    31
Direct
  0.0027930550584163  0.0038213231275409  0.9953387609019227
 -0.0016512149328182  0.5070010521643364 -0.0063448196924708
  0.5043250420912561 -0.0048822139121001 -0.0052955813761091
  0.4884479072928752  0.4847660157186184  0.0202407665397751
  0.2382429775495443 -0.0010648618679420  0.4987357768037552
  0.2316158998369006  0.5001576668697463  0.5009469721424408
  0.7425671696199365 -0.0005709268857941  0.4941974447496804
  0.7602058688045213  0.4720264931940588  0.4509860138148205
  0.2301135466521039  0.2488649267848412  0.9327474715929041
  0.2317132238503446  0.7516627430529312  0.9334736010712028
  0.7288038715461235  0.2496149595846239  0.9403835806838170
  0.7471292603680295  0.7493558875266174  0.9521115722538901
  0.0072979498234121  0.2490760072650740  0.4362455247108510
  0.0050094284161458  0.7584761258716095  0.4350691480420092
  0.4964954482791822  0.2424481130019841  0.4444222886400584
  0.4940321465960313  0.7530852218683450  0.4099815468265213
  0.0948260617627496  0.3765287100642807  0.7329358357039713
  0.0999322012384658  0.8774681762881441  0.7321822031278152
  0.6014376831884062  0.3901159864744076  0.7305740699313141
  0.5947250211612278  0.8411387742989541  0.7379649313894200
  0.1282983165268964  0.3783275217625185  0.2272814652484387
  0.1381060613589283  0.8772763768374370  0.2307819737164521
  0.6257048127296602  0.3639275563039150  0.2400171338296926
  0.6385433837295016  0.8723556699547614  0.2365608863879313
  0.0995123985714484  0.1254451379877639  0.6998077263922836
  0.0937710382948748  0.6254734366132563  0.7007820927859656
  0.5991281761641899  0.1188751995523889  0.7018834695393017
  0.1371989313734070  0.1272689296973091  0.2000407844131604
  0.1373474671866037  0.6256868172694319  0.1994964557468311
  0.6363310241080795  0.1208123845354529  0.1979390228811273
  0.6287499384211003  0.6189657824375414  0.1844901271448333
  0.3306712114541752  0.3223567184082617  0.6084252230376707
  0.3311831106796488  0.8193985485595626  0.6024185900694213
  0.8415177015755582  0.3142220317944951  0.6284589647966488
  0.8391156752271577  0.8284569103799689  0.6153754357768018
  0.3941424541425543  0.3175338533404545  0.1158554488867212
  0.3985726611318943  0.8245898643825911  0.1036328138934350
  0.8774758796551397  0.3510192875730233  0.1472112296856496
  0.9033152725072754  0.8341765240803198  0.1103815166441148
  0.3368332703082946  0.0732108196839910  0.8300152118707992
  0.3372077284256563  0.5745933371736420  0.8346470473521231
  0.8342123479859026  0.0761574633008766  0.8343693238128475
  0.8173407350705398  0.5728389650499829  0.7955112610721268
  0.4047355106175826  0.0659665999394827  0.3298567726239968
  0.4037010264608851  0.5704882200164069  0.3533931936043677
  0.9009461715056081  0.0803501269108885  0.3282637151090253
  0.8939874745845119  0.5950205449640221  0.3002781318206315
 
  0.00000000E+00  0.00000000E+00  0.00000000E+00
  0.00000000E+00  0.00000000E+00  0.00000000E+00
  0.00000000E+00  0.00000000E+00  0.00000000E+00
  0.00000000E+00  0.00000000E+00  0.00000000E+00
  0.00000000E+00  0.00000000E+00  0.00000000E+00
  0.00000000E+00  0.00000000E+00  0.00000000E+00
  0.00000000E+00  0.00000000E+00  0.00000000E+00
  0.00000000E+00  0.00000000E+00  0.00000000E+00
  0.00000000E+00  0.00000000E+00  0.00000000E+00
  0.00000000E+00  0.00000000E+00  0.00000000E+00
  0.00000000E+00  0.00000000E+00  0.00000000E+00
  0.00000000E+00  0.00000000E+00  0.00000000E+00
  0.00000000E+00  0.00000000E+00  0.00000000E+00
  0.00000000E+00  0.00000000E+00  0.00000000E+00
  0.00000000E+00  0.00000000E+00  0.00000000E+00
  0.00000000E+00  0.00000000E+00  0.00000000E+00
  0.00000000E+00  0.00000000E+00  0.00000000E+00
  0.00000000E+00  0.00000000E+00  0.00000000E+00
  0.00000000E+00  0.00000000E+00  0.00000000E+00
  0.00000000E+00  0.00000000E+00  0.00000000E+00
  0.00000000E+00  0.00000000E+00  0.00000000E+00
  0.00000000E+00  0.00000000E+00  0.00000000E+00
  0.00000000E+00  0.00000000E+00  0.00000000E+00
  0.00000000E+00  0.00000000E+00  0.00000000E+00
  0.00000000E+00  0.00000000E+00  0.00000000E+00
  0.00000000E+00  0.00000000E+00  0.00000000E+00
  0.00000000E+00  0.00000000E+00  0.00000000E+00
  0.00000000E+00  0.00000000E+00  0.00000000E+00
  0.00000000E+00  0.00000000E+00  0.00000000E+00
  0.00000000E+00  0.00000000E+00  0.00000000E+00
  0.00000000E+00  0.00000000E+00  0.00000000E+00
  0.00000000E+00  0.00000000E+00  0.00000000E+00
  0.00000000E+00  0.00000000E+00  0.00000000E+00
  0.00000000E+00  0.00000000E+00  0.00000000E+00
  0.00000000E+00  0.00000000E+00  0.00000000E+00
  0.00000000E+00  0.00000000E+00  0.00000000E+00
  0.00000000E+00  0.00000000E+00  0.00000000E+00
  0.00000000E+00  0.00000000E+00  0.00000000E+00
  0.00000000E+00  0.00000000E+00  0.00000000E+00
  0.00000000E+00  0.00000000E+00  0.00000000E+00
  0.00000000E+00  0.00000000E+00  0.00000000E+00
  0.00000000E+00  0.00000000E+00  0.00000000E+00
  0.00000000E+00  0.00000000E+00  0.00000000E+00
  0.00000000E+00  0.00000000E+00  0.00000000E+00
  0.00000000E+00  0.00000000E+00  0.00000000E+00
  0.00000000E+00  0.00000000E+00  0.00000000E+00
  0.00000000E+00  0.00000000E+00  0.00000000E+00
