PO1 vo4 O12                             
   1.00000000000000     
    10.0886818876467199    0.0129721652335233   -0.0128365329699173
     0.0130197629743664   10.1199558469199236   -0.0085582665422940
    -0.0066895157245571   -0.0044463413935696    5.2626908140624691
   Hf   O 
    16    31
Direct
 -0.0004497184613644  0.0000347628642310 -0.0013351718893748
  0.0001638594080178  0.5010965031060772  0.0003696070210984
  0.5003261336933443 -0.0007850455077766  0.0027591083738988
  0.4983808758566778  0.4990708600682974  0.0059014855897257
  0.2338676439888918  0.0002186007760531  0.5001302161436700
  0.2333059921828169  0.4999525745368390  0.5014211518963326
  0.7339435208053504  0.0008680394992912  0.4987875487362872
  0.7324933105026799  0.5043929854463585  0.4958562947161916
  0.2320990857843726  0.2491335779283535  0.9344075127457259
  0.2341684355012212  0.7515745251662685  0.9340859182523610
  0.7328008637633714  0.2526770053386185  0.9325797745038807
  0.7337370742257854  0.7488410209999808  0.9295766666537455
 -0.0011740734668053  0.2508591257401335  0.4343440414545518
  0.0011104646443454  0.7513020837532672  0.4325014230031629
  0.5002699883408753  0.2509554836096795  0.4339387390989967
  0.5025213943043624  0.7498448239744219  0.4378939255575623
  0.0974509364774894  0.3756764316044000  0.7364695937344362
  0.0982742931073857  0.8759342459159091  0.7343321004816378
  0.5968971524959465  0.3828746048199750  0.7327702637918456
  0.5953159216456007  0.8687540874599241  0.7349089193890501
  0.1350885838393050  0.3757498856017122  0.2362668804842433
  0.1367630447319373  0.8757250128385290  0.2348014501910101
  0.6356600173581786  0.3748816043097322  0.2347195707423151
  0.6367476076727169  0.8754782275384708  0.2361505608043729
  0.0972095096638657  0.1254663707020293  0.6977837084767172
  0.0973347283695208  0.6253357985600626  0.6999991439418450
  0.5966695313570536  0.1255489239006043  0.6995350543607504
  0.1348968257192054  0.1253043451360628  0.1981314743367659
  0.1380473848163566  0.6251838709114145  0.1993115824770533
  0.6358173287080886  0.1256807567586687  0.1982955514418294
  0.6342097769441997  0.6255985478404141  0.1922704481087223
  0.3316374366457807  0.3199469381986117  0.6021235229417189
  0.3325712605236935  0.8207125242383722  0.6014901743157300
  0.8311232072009285  0.3199525582392583  0.6016460103556576
  0.8338246375964392  0.8228465915474923  0.6007374878458482
  0.4005215380587355  0.3195608213226530  0.1012723640392761
  0.4023134135469120  0.8198554854302206  0.1035938338888308
  0.9007848308629978  0.3218058748419889  0.1008046040425198
  0.9034610071160445  0.8196402888101548  0.0980213163217610
  0.3319697209692077  0.0697091955921468  0.8345428306808771
  0.3347500153467622  0.5731726302962117  0.8339182502096447
  0.8312065720093438  0.0711948801925742  0.8340860092079271
  0.8291006960661399  0.5695105502323925  0.8310791834970388
  0.4015875070490612  0.0709182497498524  0.3330891221474530
  0.4043934990457505  0.5685593542122789  0.3444039888193491
  0.9007511677210767  0.0707207492319770  0.3331059409209715
  0.9017683242603051  0.5725484756658278  0.3311929421449670
 
  0.00000000E+00  0.00000000E+00  0.00000000E+00
  0.00000000E+00  0.00000000E+00  0.00000000E+00
  0.00000000E+00  0.00000000E+00  0.00000000E+00
  0.00000000E+00  0.00000000E+00  0.00000000E+00
  0.00000000E+00  0.00000000E+00  0.00000000E+00
  0.00000000E+00  0.00000000E+00  0.00000000E+00
  0.00000000E+00  0.00000000E+00  0.00000000E+00
  0.00000000E+00  0.00000000E+00  0.00000000E+00
  0.00000000E+00  0.00000000E+00  0.00000000E+00
  0.00000000E+00  0.00000000E+00  0.00000000E+00
  0.00000000E+00  0.00000000E+00  0.00000000E+00
  0.00000000E+00  0.00000000E+00  0.00000000E+00
  0.00000000E+00  0.00000000E+00  0.00000000E+00
  0.00000000E+00  0.00000000E+00  0.00000000E+00
  0.00000000E+00  0.00000000E+00  0.00000000E+00
  0.00000000E+00  0.00000000E+00  0.00000000E+00
  0.00000000E+00  0.00000000E+00  0.00000000E+00
  0.00000000E+00  0.00000000E+00  0.00000000E+00
  0.00000000E+00  0.00000000E+00  0.00000000E+00
  0.00000000E+00  0.00000000E+00  0.00000000E+00
  0.00000000E+00  0.00000000E+00  0.00000000E+00
  0.00000000E+00  0.00000000E+00  0.00000000E+00
  0.00000000E+00  0.00000000E+00  0.00000000E+00
  0.00000000E+00  0.00000000E+00  0.00000000E+00
  0.00000000E+00  0.00000000E+00  0.00000000E+00
  0.00000000E+00  0.00000000E+00  0.00000000E+00
  0.00000000E+00  0.00000000E+00  0.00000000E+00
  0.00000000E+00  0.00000000E+00  0.00000000E+00
  0.00000000E+00  0.00000000E+00  0.00000000E+00
  0.00000000E+00  0.00000000E+00  0.00000000E+00
  0.00000000E+00  0.00000000E+00  0.00000000E+00
  0.00000000E+00  0.00000000E+00  0.00000000E+00
  0.00000000E+00  0.00000000E+00  0.00000000E+00
  0.00000000E+00  0.00000000E+00  0.00000000E+00
  0.00000000E+00  0.00000000E+00  0.00000000E+00
  0.00000000E+00  0.00000000E+00  0.00000000E+00
  0.00000000E+00  0.00000000E+00  0.00000000E+00
  0.00000000E+00  0.00000000E+00  0.00000000E+00
  0.00000000E+00  0.00000000E+00  0.00000000E+00
  0.00000000E+00  0.00000000E+00  0.00000000E+00
  0.00000000E+00  0.00000000E+00  0.00000000E+00
  0.00000000E+00  0.00000000E+00  0.00000000E+00
  0.00000000E+00  0.00000000E+00  0.00000000E+00
  0.00000000E+00  0.00000000E+00  0.00000000E+00
  0.00000000E+00  0.00000000E+00  0.00000000E+00
  0.00000000E+00  0.00000000E+00  0.00000000E+00
  0.00000000E+00  0.00000000E+00  0.00000000E+00
