&control
  calculation ='scf'
  restart_mode ='from_scratch',
  prefix       ='ZnO',
  outdir='./temp'
  pseudo_dir='./GBRV_PBEsol'
  disk_io='low'
  etot_conv_thr=1.D-7,
  forc_conv_thr=1.D-6,
  verbosity    ='high',
!  tprnfor=.t.
!  tstress=.t.
  nstep=200
!  tefield = .true.
!  dipfield = .true.

 /
&system
  nosym = .true.,
  ibrav= 0,
  nat=  72,
  ntyp= 3,
  tot_charge = 0.0
  ecutwfc =  60,
  ecutrho = 500,
  occupations='smearing', smearing='mv', degauss=0.001,
!  eamp = 0.0
!  edir = 3
!  emaxpos = 0.1
!  eopreg = 0.05

!  input_dft='hse', nqx1=2, nqx2=2, nqx3=1,
!  x_gamma_extrapolation = .true.
!  vdw_corr = DFT-D3
/

&electrons
    mixing_mode = 'plain'
    mixing_beta = 0.5,
    conv_thr =  1.0d-8
!   Startingpot = 'file'
!   Startingwfc = 'file'
/

&IONS
  upscale           = 100.D0,
/

&CELL
  cell_dynamics     = 'bfgs'
  press_conv_thr    = 0.5d0
  cell_dofree = 'all'
/

ATOMIC_SPECIES
Zn 65.38   zn_pbesol_v1.uspp.F.UPF
O  15.999  o_pbesol_v1.2.uspp.F.UPF
Mg 24.305   mg_pbesol_v1.4.uspp.F.UPF

K_POINTS {automatic}
4 4 4 0 0 0 

CELL_PARAMETERS (angstrom)
   9.760484460  -0.006522928   0.006380063
  -4.885876579   8.462586866  -0.002526486
   0.006803180   0.000805560  10.389753618510

ATOMIC_POSITIONS (crystal)
Zn       0.219821848   0.110293289   0.195811853
Zn       0.554130397   0.443778306   0.193380440
Zn       0.891378447   0.444477035   0.192982945
Zn       0.222817241   0.110909252   0.695612183
Zn       0.556360223   0.111229888   0.692992509
Zn       0.887427957   0.111666126   0.691121771
Zn       0.222606142   0.446103656   0.692833408
Zn       0.888478133   0.444867318   0.693381029
Zn       0.554272635   0.777765912   0.693435268
Zn       0.887932561   0.775552342   0.691234679
Zn       0.443823919   0.223785594   0.444803717
Zn       0.778541512   0.223281438   0.442524215
Zn       0.444223083   0.554461272   0.443484311
Zn       0.776480892   0.554052021   0.442044695
Zn       0.441556599   0.887234295   0.442330296
Zn       0.109868631   0.221938838   0.943742909
Zn       0.443219476   0.219762930   0.944888280
Zn       0.443214790   0.555933901   0.944551995
Zn       0.109213934   0.887729080   0.943613381
Zn       0.445573823   0.890166863   0.945132125
Mg       0.554438370   0.112534584   0.196815358
Mg       0.890805802   0.110805962   0.195308149
Mg       0.222913037   0.441575015   0.194779357
Mg       0.222429775   0.779461653   0.193092190
Mg       0.556281148   0.778106105   0.195423601
Mg       0.889964385   0.779580133   0.195455036
Mg       0.555773920   0.444584052   0.695236700
Mg       0.224120123   0.778762897   0.694217345
Mg       0.113581853   0.223021795   0.446947345
Mg       0.111418987   0.556248599   0.443447146
Mg       0.113700572   0.890224070   0.445585320
Mg       0.775387070   0.887779832   0.445050697
Mg       0.777956165   0.222029875   0.944826407
Mg       0.111922217   0.554324102   0.943100973
Mg       0.780021803   0.556433279   0.945983739
Mg       0.779556901   0.889579046   0.941725499
O        0.220609438   0.110106880   0.003512591
O        0.556341667   0.111722558   0.005819235
O        0.887617537   0.110031861   0.004063930
O        0.221546312   0.443603017   0.004294654
O        0.555653839   0.444223476   0.001120938
O        0.890100799   0.444271136   0.001263871
O        0.221486382   0.776664423   0.001808813
O        0.557369011   0.778719249   0.003999913
O        0.887715407   0.777735962   0.004647819
O        0.222276026   0.110911532   0.504424828
O        0.555277286   0.110977972   0.501069057
O        0.889264781   0.110962968   0.500221825
O        0.221639778   0.444913618   0.501347527
O        0.555898996   0.445101533   0.504785295
O        0.888911635   0.444779005   0.502098911
O        0.220787267   0.776769319   0.503718802
O        0.553553481   0.777078958   0.501843317
O        0.889106604   0.777933257   0.499624356
O        0.110824115   0.222124990   0.256314845
O        0.442971289   0.222763169   0.253670856
O        0.778159546   0.221752921   0.250718515
O        0.114285292   0.556778460   0.252130439
O        0.444821693   0.556035868   0.252340396
O        0.778260074   0.555329596   0.250229277
O        0.111181527   0.888174870   0.255012305
O        0.444372775   0.889256889   0.251185027
O        0.777852639   0.889097641   0.253857152
O        0.110576098   0.222722207   0.751602538
O        0.445242588   0.222248642   0.753363861
O        0.777897652   0.222641308   0.753796730
O        0.111561884   0.556717177   0.752326355
O        0.444442269   0.555777551   0.752931056
O        0.777341986   0.555426122   0.754885607
O        0.110405569   0.887798131   0.751597808
O        0.445435283   0.890005206   0.753483333
O        0.777997104   0.888802173   0.750591345

