T1  O12                                 
   1.00000000000000     
    10.0745695227218306    0.1414212795910122   -0.0002234193678328
     0.1414219291899202   10.0745697518047788   -0.0002605557408952
    -0.0001200855964587   -0.0001341547557885    5.1013708986471080
   Hf   O   F
    16   31  1
Direct
  0.0025215016745172  0.0023306599006602  0.9894339547570967
 -0.0050118156400503  0.5036990174325667 -0.0051347296510734
  0.5038905896093017 -0.0052026713530487 -0.0051287238225191
  0.4918069528777380  0.4916155139242991  0.0377482014105889
  0.2411351163137507  0.4910469744750005  0.4930383549160802
  0.2486394848586880  0.0013270011331124  0.4928480549634161
  0.7588104606877654  0.4911107558777787  0.4860228226594501
  0.7589276082789735  0.0088199201644114  0.4929703549612691
  0.2476163995477723  0.2474255913156020  0.9894364802441781
  0.2551135326563599  0.7460504554116714 -0.0051561111134627
  0.7462420531731644  0.2549226760173651 -0.0051620787569213
  0.7583048283198238  0.7581133638285799  0.0377726169357864
  0.4912393925193947  0.2409454226474345  0.4930413764206275
  0.4913035472683056  0.7586176308542896  0.4860299592166392
  0.0015191510025085  0.2484473642070624  0.4928462614121625
  0.0090096423780441  0.7587351682139277  0.4929733583834012
  0.1266628901657744  0.3763107080167876  0.7811526714005835
  0.1234444147156865  0.8734489246404568  0.7811065611052893
  0.6371963347266968  0.4113228531462481  0.8002749042241524
  0.6128555316956178  0.8383241707086841  0.8004007721915302
  0.1160717622678499  0.3767902183050861  0.2794162487043585
  0.1340701734843766  0.8729894968201518  0.2793796824079003
  0.6195681830677081  0.3684735031204385  0.3004605171881198
  0.6305733744589868  0.8812273273550150  0.3005751866581875
  0.1250750980874065  0.1248820951862998  0.7071746412857495
  0.1250396203745596  0.6248747482730013  0.7092604238001751
  0.6250691981094216  0.1248524359241517  0.7092605019956324
  0.1250789384841774  0.1248825308989310  0.2034539247407351
  0.1250370992761215  0.6248982874088215  0.1988743069894917
  0.6250937231721969  0.1248438685423572  0.1988743665481621
  0.6250430198217661  0.6248507397759168  0.2511330999149813
  0.3794939876674324  0.3793039168447751  0.7223132591312228
  0.3693528139849845  0.8805539168585100  0.7088018556849655
  0.8807453152413441  0.3691614893655122  0.7087945348707494
  0.8705855550051378  0.8703955299923916  0.7222937403861291
  0.3663679930592270  0.3661739096276668  0.2222745747001033
  0.3832318809497879  0.8667066347889704  0.2053309724573520
  0.8669002843623134  0.3830382081748325  0.2053268013893223
  0.8837768326293750  0.8835827793741858  0.2222351657680126
  0.3765046159953507  0.1264725272544288  0.7811579864523430
  0.4115145892210222  0.6370063553616222  0.8002822794750503
  0.8736428283840805  0.1232540924652397  0.7811012336553237
  0.8385159156760595  0.6126655809519060  0.8003933235373258
  0.3769867348689965  0.1158769458406416  0.2794238516953981
  0.3686663785342795  0.6193746949289857  0.3004689622321637
  0.8731859909065728  0.1338753695491896  0.2793721001271339
  0.8814201690796376  0.6303798994480557  0.3005666693456158
  0.624934029         0.624873517         0.695145003

  0.00000000E+00  0.00000000E+00  0.00000000E+00
  0.00000000E+00  0.00000000E+00  0.00000000E+00
  0.00000000E+00  0.00000000E+00  0.00000000E+00
  0.00000000E+00  0.00000000E+00  0.00000000E+00
  0.00000000E+00  0.00000000E+00  0.00000000E+00
  0.00000000E+00  0.00000000E+00  0.00000000E+00
  0.00000000E+00  0.00000000E+00  0.00000000E+00
  0.00000000E+00  0.00000000E+00  0.00000000E+00
  0.00000000E+00  0.00000000E+00  0.00000000E+00
  0.00000000E+00  0.00000000E+00  0.00000000E+00
  0.00000000E+00  0.00000000E+00  0.00000000E+00
  0.00000000E+00  0.00000000E+00  0.00000000E+00
  0.00000000E+00  0.00000000E+00  0.00000000E+00
  0.00000000E+00  0.00000000E+00  0.00000000E+00
  0.00000000E+00  0.00000000E+00  0.00000000E+00
  0.00000000E+00  0.00000000E+00  0.00000000E+00
  0.00000000E+00  0.00000000E+00  0.00000000E+00
  0.00000000E+00  0.00000000E+00  0.00000000E+00
  0.00000000E+00  0.00000000E+00  0.00000000E+00
  0.00000000E+00  0.00000000E+00  0.00000000E+00
  0.00000000E+00  0.00000000E+00  0.00000000E+00
  0.00000000E+00  0.00000000E+00  0.00000000E+00
  0.00000000E+00  0.00000000E+00  0.00000000E+00
  0.00000000E+00  0.00000000E+00  0.00000000E+00
  0.00000000E+00  0.00000000E+00  0.00000000E+00
  0.00000000E+00  0.00000000E+00  0.00000000E+00
  0.00000000E+00  0.00000000E+00  0.00000000E+00
  0.00000000E+00  0.00000000E+00  0.00000000E+00
  0.00000000E+00  0.00000000E+00  0.00000000E+00
  0.00000000E+00  0.00000000E+00  0.00000000E+00
  0.00000000E+00  0.00000000E+00  0.00000000E+00
  0.00000000E+00  0.00000000E+00  0.00000000E+00
  0.00000000E+00  0.00000000E+00  0.00000000E+00
  0.00000000E+00  0.00000000E+00  0.00000000E+00
  0.00000000E+00  0.00000000E+00  0.00000000E+00
  0.00000000E+00  0.00000000E+00  0.00000000E+00
  0.00000000E+00  0.00000000E+00  0.00000000E+00
  0.00000000E+00  0.00000000E+00  0.00000000E+00
  0.00000000E+00  0.00000000E+00  0.00000000E+00
  0.00000000E+00  0.00000000E+00  0.00000000E+00
  0.00000000E+00  0.00000000E+00  0.00000000E+00
  0.00000000E+00  0.00000000E+00  0.00000000E+00
  0.00000000E+00  0.00000000E+00  0.00000000E+00
  0.00000000E+00  0.00000000E+00  0.00000000E+00
  0.00000000E+00  0.00000000E+00  0.00000000E+00
  0.00000000E+00  0.00000000E+00  0.00000000E+00
  0.00000000E+00  0.00000000E+00  0.00000000E+00
