PO3 vo3 O25                             
   1.00000000000000     
    10.5115267457988679    0.0037300185747073    0.0229637587007028
     0.0035726878444727   10.0846908219595459   -0.0145782870361421
     0.0110742637640467   -0.0073339691372624    5.0762386482929083
   Hf   O 
    16    31
Direct
 -0.0002243288419488 -0.0001931646351080 -0.0002421141795021
  0.0008688867270919  0.5002475745895741 -0.0031460262734041
  0.5002897432342083  0.0026440434750662  0.0037923764914355
  0.4980888823936297  0.4995642884040531  0.0019061216573998
  0.2496604632512242  0.2323388059586889 -0.0011844043189091
  0.2501242102594473  0.7337523850399110 -0.0036817550189518
  0.7496623480425130  0.2329279229179951  0.0033614653904945
  0.7500797754583566  0.7333676285221081  0.0010266643091699
  0.4668219609576036  0.2344841666564923  0.5110295998968649
  0.4675909860026248  0.7347741702280622  0.4992402188474404
  0.9664896562202789  0.2334411849757254  0.5007130662632421
  0.9678782321161494  0.7326124971209298  0.4994608390220460
  0.2170878596538543  0.0004723913398994  0.4989081280761558
  0.2202533979041854  0.4982800803788556  0.4943315822822340
  0.7172070688501798 -0.0004333439080099  0.5019707382600530
  0.7164044824720719  0.5003084524350079  0.5006116067356468
  0.3661335409707089  0.0937526068692526  0.7516555214802536
  0.3690194113501834  0.5978144495035445  0.7457837848237017
  0.8680143070275680  0.0978845231975345  0.7511412999665730
  0.8689692330730546  0.5974486269823099  0.7500531743036043
  0.1174930881522463  0.1355882691284429  0.7485567761922292
  0.1191872187038142  0.6348420800247487  0.7473991035012962
  0.6189424504714875  0.1347993549021517  0.7549157665312366
  0.6188742928141543  0.6355080368673206  0.7514311087290492
  0.3494369806789905  0.1053068875314349  0.2535694550333166
  0.3506978521225603  0.5968917616409039  0.2435183432116896
  0.8487832662233028  0.0977576972139263  0.2510555447224667
  0.8485415461071486  0.5971283219129989  0.2494907556389618
  0.0981745150605185  0.1353985919159567  0.2496691340888769
  0.0998620117877369  0.6350462862502131  0.2473686697959552
  0.5988910962167987  0.1364973485368178  0.2556635890852287
  0.5988324151241822  0.6356899504478354  0.2499409954698248
  0.3002821361680919  0.3312432300660491  0.6439342859358801
  0.3000896831522707  0.8317033289633941  0.6397346340509301
  0.7997476765261645  0.3330088745812187  0.6449822755040555
  0.8012805457274202  0.8322757706391782  0.6435527157936480
  0.0517249911302803  0.4005102227668498  0.6396048632692234
  0.0511991926835591  0.9002607757055759  0.6421803685217489
  0.5496384976621517  0.4028899596010614  0.6450574894249674
  0.5510385698083722  0.9008013063963684  0.6459101345688844
  0.4154525344277203  0.8348884151933631  0.1444095844980754
  0.9158577828566157  0.3335133808801432  0.1429929000574326
  0.9168657207478017  0.8320864233876729  0.1430029297610535
  0.1696922238128916  0.4003933583528315  0.1383790506074896
  0.1670230945616475  0.9018157803010806  0.1403356621069434
  0.6604805466354021  0.3985600867511379  0.1462727110902707
  0.6660504565136833  0.9010160439893999  0.1448732337936164
 
  0.00000000E+00  0.00000000E+00  0.00000000E+00
  0.00000000E+00  0.00000000E+00  0.00000000E+00
  0.00000000E+00  0.00000000E+00  0.00000000E+00
  0.00000000E+00  0.00000000E+00  0.00000000E+00
  0.00000000E+00  0.00000000E+00  0.00000000E+00
  0.00000000E+00  0.00000000E+00  0.00000000E+00
  0.00000000E+00  0.00000000E+00  0.00000000E+00
  0.00000000E+00  0.00000000E+00  0.00000000E+00
  0.00000000E+00  0.00000000E+00  0.00000000E+00
  0.00000000E+00  0.00000000E+00  0.00000000E+00
  0.00000000E+00  0.00000000E+00  0.00000000E+00
  0.00000000E+00  0.00000000E+00  0.00000000E+00
  0.00000000E+00  0.00000000E+00  0.00000000E+00
  0.00000000E+00  0.00000000E+00  0.00000000E+00
  0.00000000E+00  0.00000000E+00  0.00000000E+00
  0.00000000E+00  0.00000000E+00  0.00000000E+00
  0.00000000E+00  0.00000000E+00  0.00000000E+00
  0.00000000E+00  0.00000000E+00  0.00000000E+00
  0.00000000E+00  0.00000000E+00  0.00000000E+00
  0.00000000E+00  0.00000000E+00  0.00000000E+00
  0.00000000E+00  0.00000000E+00  0.00000000E+00
  0.00000000E+00  0.00000000E+00  0.00000000E+00
  0.00000000E+00  0.00000000E+00  0.00000000E+00
  0.00000000E+00  0.00000000E+00  0.00000000E+00
  0.00000000E+00  0.00000000E+00  0.00000000E+00
  0.00000000E+00  0.00000000E+00  0.00000000E+00
  0.00000000E+00  0.00000000E+00  0.00000000E+00
  0.00000000E+00  0.00000000E+00  0.00000000E+00
  0.00000000E+00  0.00000000E+00  0.00000000E+00
  0.00000000E+00  0.00000000E+00  0.00000000E+00
  0.00000000E+00  0.00000000E+00  0.00000000E+00
  0.00000000E+00  0.00000000E+00  0.00000000E+00
  0.00000000E+00  0.00000000E+00  0.00000000E+00
  0.00000000E+00  0.00000000E+00  0.00000000E+00
  0.00000000E+00  0.00000000E+00  0.00000000E+00
  0.00000000E+00  0.00000000E+00  0.00000000E+00
  0.00000000E+00  0.00000000E+00  0.00000000E+00
  0.00000000E+00  0.00000000E+00  0.00000000E+00
  0.00000000E+00  0.00000000E+00  0.00000000E+00
  0.00000000E+00  0.00000000E+00  0.00000000E+00
  0.00000000E+00  0.00000000E+00  0.00000000E+00
  0.00000000E+00  0.00000000E+00  0.00000000E+00
  0.00000000E+00  0.00000000E+00  0.00000000E+00
  0.00000000E+00  0.00000000E+00  0.00000000E+00
  0.00000000E+00  0.00000000E+00  0.00000000E+00
  0.00000000E+00  0.00000000E+00  0.00000000E+00
  0.00000000E+00  0.00000000E+00  0.00000000E+00
