PO3 vo3 O25                             
   1.00000000000000     
    10.3987717021467763    0.0392979010048585    0.0348234539917930
     0.0377926329980168   10.0376384839308681   -0.0295832933377952
     0.0167037016932547   -0.0148412923215718    5.0616332897253216
   Hf   O 
    16    31
Direct
  0.9952649932671299  0.9956349646780627 -0.0087298381556604
  0.0021085716102945  0.5000803613012140  0.0020187086082040
  0.5001403662809912  0.0002291550889533  0.0076774401791438
  0.5084497302778374  0.5192700862275584 -0.0175234458926901
  0.2298917064200034  0.2260617129053417  0.9774947382228147
  0.2491558891022542  0.7315341277238482  0.9969296927404593
  0.7496265528074529  0.2332268692286668  0.0074471094815427
  0.7549521931608290  0.7348048990899965  0.0023931451056372
  0.4740499897341052  0.2248084058061785  0.5357390181664763
  0.4672274597640238  0.7386418619022476  0.4948229118916276
  0.9633315407090007  0.2322871321880464  0.4982003822528498
  0.9682648318134200  0.7296956022424108  0.5017369779193972
  0.2156212077571942 -0.0034981165587870  0.4836184995443282
  0.2205728210587767  0.4999616631766234  0.5059035474812436
  0.7182736282700787  0.9982769835775939  0.5023666713707629
  0.7185412889536886  0.4983187659705371  0.4953324378371000
  0.3626997812467704  0.0914891587840058  0.7511340521061050
  0.3683093343969618  0.6034155903368980  0.7413402136536580
  0.8633256602554412  0.0972773841083777  0.7494062598309374
  0.8683918046728674  0.5932788586348787  0.7507428788502900
  0.1116982868778805  0.1312838418240174  0.7297894345591258
  0.1168807701603563  0.6340729236944221  0.7519605485367442
  0.6143637584822577  0.1359770497756552  0.7642226484677893
  0.6186167460379364  0.6381723395439396  0.7463308593652281
  0.3515548958537545  0.1341513932015535  0.2457582870876808
  0.3582473087262810  0.5868891771979551  0.2408841492727703
  0.8474878017459930  0.0963562928701911  0.2487070178021989
  0.8521047177744854  0.5943399942678202  0.2493506076139648
  0.0924359579966579  0.1339823683292185  0.2347163557708916
  0.1056217626510678  0.6342587210407887  0.2516324503422318
  0.5975408991700957  0.1365519872951179  0.2615026200185392
  0.6063639685788308  0.6421961462594273  0.2455642000535340
  0.3144096442869764  0.3388601931161111  0.6764079859867483
  0.2979408168060813  0.8310855268367708  0.6346208016682268
  0.7994935650344547  0.3325216272830516  0.6492788265720497
  0.8021005422936633  0.8307164197125831  0.6423824154585035
  0.0591305777152914  0.3927207339401484  0.6580428218843279
  0.0515241778892674  0.9001356437281518  0.6294168743966645
  0.5519469997771456  0.4009826215721301  0.6502089519694972
  0.5498948962367602  0.9033476833245547  0.6466905360150109
  0.4122502631043192  0.8360612819698889  0.1479287610980767
  0.9104661840701694  0.3365718418757671  0.1501407808930850
  0.9198868769989197  0.8279427555551452  0.1406177311678546
  0.1763766164884480  0.3959687009083558  0.1577379608691980
  0.1698622785916676  0.9058979542486622  0.1251909024012050
  0.6415240734222967  0.3921666404561089  0.1552309249279675
  0.6666367646698083  0.9029035077597811  0.1421671136065662
 
  0.00000000E+00  0.00000000E+00  0.00000000E+00
  0.00000000E+00  0.00000000E+00  0.00000000E+00
  0.00000000E+00  0.00000000E+00  0.00000000E+00
  0.00000000E+00  0.00000000E+00  0.00000000E+00
  0.00000000E+00  0.00000000E+00  0.00000000E+00
  0.00000000E+00  0.00000000E+00  0.00000000E+00
  0.00000000E+00  0.00000000E+00  0.00000000E+00
  0.00000000E+00  0.00000000E+00  0.00000000E+00
  0.00000000E+00  0.00000000E+00  0.00000000E+00
  0.00000000E+00  0.00000000E+00  0.00000000E+00
  0.00000000E+00  0.00000000E+00  0.00000000E+00
  0.00000000E+00  0.00000000E+00  0.00000000E+00
  0.00000000E+00  0.00000000E+00  0.00000000E+00
  0.00000000E+00  0.00000000E+00  0.00000000E+00
  0.00000000E+00  0.00000000E+00  0.00000000E+00
  0.00000000E+00  0.00000000E+00  0.00000000E+00
  0.00000000E+00  0.00000000E+00  0.00000000E+00
  0.00000000E+00  0.00000000E+00  0.00000000E+00
  0.00000000E+00  0.00000000E+00  0.00000000E+00
  0.00000000E+00  0.00000000E+00  0.00000000E+00
  0.00000000E+00  0.00000000E+00  0.00000000E+00
  0.00000000E+00  0.00000000E+00  0.00000000E+00
  0.00000000E+00  0.00000000E+00  0.00000000E+00
  0.00000000E+00  0.00000000E+00  0.00000000E+00
  0.00000000E+00  0.00000000E+00  0.00000000E+00
  0.00000000E+00  0.00000000E+00  0.00000000E+00
  0.00000000E+00  0.00000000E+00  0.00000000E+00
  0.00000000E+00  0.00000000E+00  0.00000000E+00
  0.00000000E+00  0.00000000E+00  0.00000000E+00
  0.00000000E+00  0.00000000E+00  0.00000000E+00
  0.00000000E+00  0.00000000E+00  0.00000000E+00
  0.00000000E+00  0.00000000E+00  0.00000000E+00
  0.00000000E+00  0.00000000E+00  0.00000000E+00
  0.00000000E+00  0.00000000E+00  0.00000000E+00
  0.00000000E+00  0.00000000E+00  0.00000000E+00
  0.00000000E+00  0.00000000E+00  0.00000000E+00
  0.00000000E+00  0.00000000E+00  0.00000000E+00
  0.00000000E+00  0.00000000E+00  0.00000000E+00
  0.00000000E+00  0.00000000E+00  0.00000000E+00
  0.00000000E+00  0.00000000E+00  0.00000000E+00
  0.00000000E+00  0.00000000E+00  0.00000000E+00
  0.00000000E+00  0.00000000E+00  0.00000000E+00
  0.00000000E+00  0.00000000E+00  0.00000000E+00
  0.00000000E+00  0.00000000E+00  0.00000000E+00
  0.00000000E+00  0.00000000E+00  0.00000000E+00
  0.00000000E+00  0.00000000E+00  0.00000000E+00
  0.00000000E+00  0.00000000E+00  0.00000000E+00
