p21c  M2 vo4 O1                         
   1.00000000000000     
    10.6252490163034228   -0.0098786266906245   -0.0013257434043820
    -0.0096244747809863   10.3760789361645784   -0.0004277595117138
    -0.8640522950726897    0.0005927771310445    5.0641719685773658
   Hf   O 
    16    31
Direct
  0.0004015933332892  0.4995349091603715  0.9969761684722773
  0.0001965970720470  0.9998649333618964  0.9982979356563668
  0.5005261129851145  0.4973946463400644  0.0000016635660820
  0.5005625052213043  0.9986972642343517  0.9973107138389868
  0.2921839994682796  0.0424178309313596  0.4483546089291320
  0.2921992478439848  0.5431191337964003  0.4495973560168376
  0.7923504704122678  0.0421530482758575  0.4456953886107238
  0.7918448653629262  0.5425331161083740  0.4460997872369877
  0.0428396081511040  0.2493996275223212  0.4464712233268741
  0.0417653737515118  0.7502282940717445  0.4465007626323577
  0.5419620000623926  0.2491721952049724  0.4430587970354790
  0.5420817822024715  0.7484354837378477  0.4462386547947561
  0.2514663510356412  0.2922975967590100  0.9985654576518086
  0.2498752926060477  0.7917482149382310  0.0004943688432666
  0.7493544331640679  0.2919068485790145  0.9958908174241543
  0.7499918097767243  0.7919795362425435  0.9988073434213448
  0.4071024714875657  0.8916697263552446  0.2734919368027363
  0.9075546470467355  0.3925409740936018  0.2728622799074114
  0.9071568189388173  0.8925659780126899  0.2736870982782728
  0.1621599926699183  0.3987995698452332  0.2740964217570764
  0.1572671579095372  0.8992767798161775  0.2751135687490818
  0.6537222845021986  0.3996246594322106  0.2728280565104624
  0.6572735344717591  0.8994905056153640  0.2735801714150780
  0.3860422012557708  0.1547240425805898  0.1772809625135593
  0.3848549655475482  0.6468477781806035  0.1698580986496782
  0.8849702582923505  0.1499445701888900  0.1702576742549119
  0.8850179356993128  0.6498647988769747  0.1716069899546126
  0.1350785754800610  0.1415258578855809  0.1711508931259942
  0.1346594485063782  0.6422808103224735  0.1725126877624611
  0.6351351149738053  0.1417546943642165  0.1695632415096385
  0.6355369424071612  0.6423217540088488  0.1722920881470207
  0.3208863988421869  0.4344211889752356  0.7908225450560455
  0.3189266926077299  0.9368533683149270  0.7927638182765308
  0.8193771052291139  0.4361326044442114  0.7897393040809020
  0.8192387237248734  0.9362699451664211  0.7900462295269322
  0.0696176256082691  0.3572477859761817  0.7881986020296906
  0.0695292696835770  0.8557750737456644  0.7915013810565660
  0.5691483233797453  0.3555624281257960  0.7865755383920484
  0.5691711752837005  0.8552474072695477  0.7906191833404359
  0.4732735718773409  0.1047358128543966  0.6549253566349628
  0.4715371958470188  0.6058319888259514  0.6530091636876495
  0.9731208216446979  0.1058410955072821  0.6538144126534251
  0.9718422453108890  0.6066165661811983  0.6552472177276231
  0.2229145751724199  0.1857241043696760  0.6536202729813547
  0.2221743672340619  0.6865183885720748  0.6557575839385695
  0.7237573916393539  0.1870069521210458  0.6522077153440028
  0.7223792792769161  0.6856203967073221  0.6553378554778033
 
  0.00000000E+00  0.00000000E+00  0.00000000E+00
  0.00000000E+00  0.00000000E+00  0.00000000E+00
  0.00000000E+00  0.00000000E+00  0.00000000E+00
  0.00000000E+00  0.00000000E+00  0.00000000E+00
  0.00000000E+00  0.00000000E+00  0.00000000E+00
  0.00000000E+00  0.00000000E+00  0.00000000E+00
  0.00000000E+00  0.00000000E+00  0.00000000E+00
  0.00000000E+00  0.00000000E+00  0.00000000E+00
  0.00000000E+00  0.00000000E+00  0.00000000E+00
  0.00000000E+00  0.00000000E+00  0.00000000E+00
  0.00000000E+00  0.00000000E+00  0.00000000E+00
  0.00000000E+00  0.00000000E+00  0.00000000E+00
  0.00000000E+00  0.00000000E+00  0.00000000E+00
  0.00000000E+00  0.00000000E+00  0.00000000E+00
  0.00000000E+00  0.00000000E+00  0.00000000E+00
  0.00000000E+00  0.00000000E+00  0.00000000E+00
  0.00000000E+00  0.00000000E+00  0.00000000E+00
  0.00000000E+00  0.00000000E+00  0.00000000E+00
  0.00000000E+00  0.00000000E+00  0.00000000E+00
  0.00000000E+00  0.00000000E+00  0.00000000E+00
  0.00000000E+00  0.00000000E+00  0.00000000E+00
  0.00000000E+00  0.00000000E+00  0.00000000E+00
  0.00000000E+00  0.00000000E+00  0.00000000E+00
  0.00000000E+00  0.00000000E+00  0.00000000E+00
  0.00000000E+00  0.00000000E+00  0.00000000E+00
  0.00000000E+00  0.00000000E+00  0.00000000E+00
  0.00000000E+00  0.00000000E+00  0.00000000E+00
  0.00000000E+00  0.00000000E+00  0.00000000E+00
  0.00000000E+00  0.00000000E+00  0.00000000E+00
  0.00000000E+00  0.00000000E+00  0.00000000E+00
  0.00000000E+00  0.00000000E+00  0.00000000E+00
  0.00000000E+00  0.00000000E+00  0.00000000E+00
  0.00000000E+00  0.00000000E+00  0.00000000E+00
  0.00000000E+00  0.00000000E+00  0.00000000E+00
  0.00000000E+00  0.00000000E+00  0.00000000E+00
  0.00000000E+00  0.00000000E+00  0.00000000E+00
  0.00000000E+00  0.00000000E+00  0.00000000E+00
  0.00000000E+00  0.00000000E+00  0.00000000E+00
  0.00000000E+00  0.00000000E+00  0.00000000E+00
  0.00000000E+00  0.00000000E+00  0.00000000E+00
  0.00000000E+00  0.00000000E+00  0.00000000E+00
  0.00000000E+00  0.00000000E+00  0.00000000E+00
  0.00000000E+00  0.00000000E+00  0.00000000E+00
  0.00000000E+00  0.00000000E+00  0.00000000E+00
  0.00000000E+00  0.00000000E+00  0.00000000E+00
  0.00000000E+00  0.00000000E+00  0.00000000E+00
  0.00000000E+00  0.00000000E+00  0.00000000E+00
