p21c    M2 vo3 O32                      
   1.00000000000000     
    10.6256830325063554    0.0143787901211084    0.0119765343725919
     0.0140317584205224   10.3692573883368269   -0.0055907356295795
    -0.8577578836456198   -0.0038973372569309    5.0589988734527189
   Hf   O 
    16    31
Direct
 -0.0017484176890306  0.5000123571618414  0.0002241588241961
  0.0009964448671810  0.9998512212613635  0.9979700606995859
  0.5009963771957044  0.4992892419408284  0.9992867183849574
  0.5013153630508264  0.9986848795391865  0.9984490352741897
  0.2931141516642254  0.0416015629127252  0.4454322124386804
  0.2921210302865516  0.5414658091955721  0.4451671618639071
  0.7927754539473064  0.0418885661013981  0.4451765406489153
  0.7879705837194568  0.5472882110616970  0.4540101786035272
  0.0421817512960090  0.2497448575734718  0.4456538520915259
  0.0409558061861935  0.7502860773607440  0.4466295091095902
  0.5428422408140934  0.2492330470783746  0.4468302760802906
  0.5419546957801106  0.7492027026196914  0.4492184766551379
  0.2504830510144311  0.2924183518223277  0.9973014570194350
  0.2505189491254479  0.7917706734221960  0.9974208418647279
  0.7503455928993974  0.2926170284556206  0.0002951288578426
  0.7507423531756572  0.7916568002439871  0.9973208733787372
  0.4076860238410447  0.3917704179488158  0.2732620195234403
  0.4077875776393396  0.8927005977791831  0.2712148516750261
  0.9080410988545746  0.3913337448907541  0.2707570175989237
  0.9089871599744347  0.8934100312018054  0.2723953565701530
  0.1577015055872224  0.3997050357247044  0.2732194525849758
  0.1580825776568335  0.8992994896448944  0.2731317833773066
  0.6575812178887084  0.4001454789117386  0.2750712096318033
  0.6578399310009120  0.9001170832816170  0.2700245075301609
  0.3857313727717215  0.1493203429623490  0.1697355714923943
  0.3839804850341361  0.6481415882469320  0.1688672263227726
  0.8851625402268418  0.1488813655870395  0.1701677083492401
  0.8826993707188315  0.6495283968947952  0.1722563496448610
  0.1355041869149846  0.1423987600010788  0.1699067128981358
  0.1331952435009725  0.6423089644689212  0.1711720621994541
  0.6358473987078824  0.1423557755157876  0.1709248368044291
  0.6361001798110861  0.6422294554052013  0.1840313916033615
  0.3209906632854979  0.4353070812070785  0.7892743753868342
  0.3221337388849612  0.9333029088671377  0.7869794265475055
  0.8154789350468383  0.4400608058853976  0.7918829013261440
  0.8211741886198886  0.9313740886961542  0.7856797355811070
  0.0692942282221467  0.3584601876573546  0.7876272841933269
  0.0718678926411345  0.8576436381333482  0.7884020270202516
  0.5690688263802278  0.3542231921959560  0.7918738775224776
  0.5730163910292473  0.8523593407351904  0.7906050534094103
  0.4740414662670031  0.1041318876819060  0.6531829617901022
  0.4742854694059864  0.6056368312511301  0.6547848151938844
  0.9723229983927759  0.1065649761017511  0.6547458859672586
  0.9648764795027632  0.6116106572837633  0.6592475976242653
  0.2228837723851959  0.1854199618772284  0.6544834547787003
  0.2204485242544687  0.6833465271786944  0.6552402178658105
  0.7237921792187648  0.1859116990312550  0.6552921161912146
 
  0.00000000E+00  0.00000000E+00  0.00000000E+00
  0.00000000E+00  0.00000000E+00  0.00000000E+00
  0.00000000E+00  0.00000000E+00  0.00000000E+00
  0.00000000E+00  0.00000000E+00  0.00000000E+00
  0.00000000E+00  0.00000000E+00  0.00000000E+00
  0.00000000E+00  0.00000000E+00  0.00000000E+00
  0.00000000E+00  0.00000000E+00  0.00000000E+00
  0.00000000E+00  0.00000000E+00  0.00000000E+00
  0.00000000E+00  0.00000000E+00  0.00000000E+00
  0.00000000E+00  0.00000000E+00  0.00000000E+00
  0.00000000E+00  0.00000000E+00  0.00000000E+00
  0.00000000E+00  0.00000000E+00  0.00000000E+00
  0.00000000E+00  0.00000000E+00  0.00000000E+00
  0.00000000E+00  0.00000000E+00  0.00000000E+00
  0.00000000E+00  0.00000000E+00  0.00000000E+00
  0.00000000E+00  0.00000000E+00  0.00000000E+00
  0.00000000E+00  0.00000000E+00  0.00000000E+00
  0.00000000E+00  0.00000000E+00  0.00000000E+00
  0.00000000E+00  0.00000000E+00  0.00000000E+00
  0.00000000E+00  0.00000000E+00  0.00000000E+00
  0.00000000E+00  0.00000000E+00  0.00000000E+00
  0.00000000E+00  0.00000000E+00  0.00000000E+00
  0.00000000E+00  0.00000000E+00  0.00000000E+00
  0.00000000E+00  0.00000000E+00  0.00000000E+00
  0.00000000E+00  0.00000000E+00  0.00000000E+00
  0.00000000E+00  0.00000000E+00  0.00000000E+00
  0.00000000E+00  0.00000000E+00  0.00000000E+00
  0.00000000E+00  0.00000000E+00  0.00000000E+00
  0.00000000E+00  0.00000000E+00  0.00000000E+00
  0.00000000E+00  0.00000000E+00  0.00000000E+00
  0.00000000E+00  0.00000000E+00  0.00000000E+00
  0.00000000E+00  0.00000000E+00  0.00000000E+00
  0.00000000E+00  0.00000000E+00  0.00000000E+00
  0.00000000E+00  0.00000000E+00  0.00000000E+00
  0.00000000E+00  0.00000000E+00  0.00000000E+00
  0.00000000E+00  0.00000000E+00  0.00000000E+00
  0.00000000E+00  0.00000000E+00  0.00000000E+00
  0.00000000E+00  0.00000000E+00  0.00000000E+00
  0.00000000E+00  0.00000000E+00  0.00000000E+00
  0.00000000E+00  0.00000000E+00  0.00000000E+00
  0.00000000E+00  0.00000000E+00  0.00000000E+00
  0.00000000E+00  0.00000000E+00  0.00000000E+00
  0.00000000E+00  0.00000000E+00  0.00000000E+00
  0.00000000E+00  0.00000000E+00  0.00000000E+00
  0.00000000E+00  0.00000000E+00  0.00000000E+00
  0.00000000E+00  0.00000000E+00  0.00000000E+00
  0.00000000E+00  0.00000000E+00  0.00000000E+00
