Pnm21   P2 vo4 O8                       
   1.00000000000000     
    10.2048611752216640    0.1397268728672468   -0.0683600645088438
     0.1478259002245487   10.0931550009046305   -0.4723641100949206
    -0.0314212403052509    0.2697907807343823    5.0631220633108116
   Hf   O 
    16    31
Direct
 -0.0124080009739313  0.4955404837744888  0.0131380834037766
  0.0134414309862323 -0.0031244396220409  0.0091754909180123
  0.4865228248928902  0.5115923597069192  0.0648774862866555
  0.4889502264468383  0.0219881381504240  0.0037506425723491
  0.2499623696047991  0.2709761682896392 -0.0192389688028347
  0.2713807342478287  0.7655388213995570 -0.0164192057676220
  0.7315933744766634  0.2589197629982306  0.0387243345598880
  0.7612261548288914  0.7769086861770685  0.0838859430653269
 -0.0204105298863524  0.2497386081418416  0.5358825943325937
  0.0212112367464364  0.7651042712435927  0.5055737855079553
  0.5058318423022445  0.2818753790897032  0.5400546061602728
  0.5015991361441682  0.7819164171177364  0.5052957269250467
  0.2252635029032375  0.4976063759619215  0.4808680817575783
  0.2391104511667212  0.0242416895859914  0.5068651631580552
  0.7555896132894823  0.5082037867533977  0.5308480421540599
  0.7609181117620456 -0.0000830942606777  0.5708259220271239
  0.3785439473252577  0.1514385237927857  0.7082026852770422
  0.4391490594788413  0.6605316425118705  0.8060517492571815
  0.8801242904517103  0.1216211802094094  0.8271489595352215
  0.8244325760162499  0.6088797552202536  0.8794990916483765
  0.1289889862979000  0.1412306218488602  0.7850513241027888
  0.1465849056103015  0.6404746037469301  0.7511019491225721
  0.6317055338445425  0.1387843008818304  0.7517865854879315
  0.3193755873710226  0.1107819466593988  0.1863557999362319
  0.3474055027455353  0.6315983756990106  0.2844713896703686
  0.8162545780794930  0.1604318319231560  0.3449603881833931
  0.8537543272240826  0.6657546267767157  0.3879163478905442
  0.0705067639443590  0.1070194506291719  0.3165722779897855
  0.0897588318128064  0.6148270327420877  0.2573166165644192
  0.5630532295629780  0.1713660285249023  0.2177507997815544
  0.6118992260639361  0.6472863711778815  0.2841473714630742
  0.3559312854729649  0.4093270265786176  0.7748468406360765
  0.3671795307288959  0.8998017490229239  0.7305367652496230
  0.8533979449138093  0.3672472162778623  0.7776599845442065
  0.8817865826131217  0.8635105522336395  0.7909065254266259
  0.0994730502806779  0.3914402429184099  0.7427593150134825
  0.1274428846945991  0.8906701569631562  0.7552522896274837
  0.6077332688050066  0.4127618983499485  0.7889769745295218
  0.6253864594616931  0.8689865968123132  0.7947846514544205
  0.3733747638750800  0.3766613100171770  0.2729969915788020
  0.3977707008825310  0.8776438971178109  0.2224729787442109
  0.8796693434856332  0.4007654581329494  0.2867162422822234
  0.8915053819782933  0.9035954998230064  0.2851912164644322
  0.1242395835210035  0.3612227794032547  0.2484392515750113
  0.1481028634902629  0.8650793103829646  0.2577330293583661
  0.6306498652814363  0.3984105754278894  0.2928815336275809
  0.6371010727477355  0.9139650636859952  0.2955212167192370
 
  0.00000000E+00  0.00000000E+00  0.00000000E+00
  0.00000000E+00  0.00000000E+00  0.00000000E+00
  0.00000000E+00  0.00000000E+00  0.00000000E+00
  0.00000000E+00  0.00000000E+00  0.00000000E+00
  0.00000000E+00  0.00000000E+00  0.00000000E+00
  0.00000000E+00  0.00000000E+00  0.00000000E+00
  0.00000000E+00  0.00000000E+00  0.00000000E+00
  0.00000000E+00  0.00000000E+00  0.00000000E+00
  0.00000000E+00  0.00000000E+00  0.00000000E+00
  0.00000000E+00  0.00000000E+00  0.00000000E+00
  0.00000000E+00  0.00000000E+00  0.00000000E+00
  0.00000000E+00  0.00000000E+00  0.00000000E+00
  0.00000000E+00  0.00000000E+00  0.00000000E+00
  0.00000000E+00  0.00000000E+00  0.00000000E+00
  0.00000000E+00  0.00000000E+00  0.00000000E+00
  0.00000000E+00  0.00000000E+00  0.00000000E+00
  0.00000000E+00  0.00000000E+00  0.00000000E+00
  0.00000000E+00  0.00000000E+00  0.00000000E+00
  0.00000000E+00  0.00000000E+00  0.00000000E+00
  0.00000000E+00  0.00000000E+00  0.00000000E+00
  0.00000000E+00  0.00000000E+00  0.00000000E+00
  0.00000000E+00  0.00000000E+00  0.00000000E+00
  0.00000000E+00  0.00000000E+00  0.00000000E+00
  0.00000000E+00  0.00000000E+00  0.00000000E+00
  0.00000000E+00  0.00000000E+00  0.00000000E+00
  0.00000000E+00  0.00000000E+00  0.00000000E+00
  0.00000000E+00  0.00000000E+00  0.00000000E+00
  0.00000000E+00  0.00000000E+00  0.00000000E+00
  0.00000000E+00  0.00000000E+00  0.00000000E+00
  0.00000000E+00  0.00000000E+00  0.00000000E+00
  0.00000000E+00  0.00000000E+00  0.00000000E+00
  0.00000000E+00  0.00000000E+00  0.00000000E+00
  0.00000000E+00  0.00000000E+00  0.00000000E+00
  0.00000000E+00  0.00000000E+00  0.00000000E+00
  0.00000000E+00  0.00000000E+00  0.00000000E+00
  0.00000000E+00  0.00000000E+00  0.00000000E+00
  0.00000000E+00  0.00000000E+00  0.00000000E+00
  0.00000000E+00  0.00000000E+00  0.00000000E+00
  0.00000000E+00  0.00000000E+00  0.00000000E+00
  0.00000000E+00  0.00000000E+00  0.00000000E+00
  0.00000000E+00  0.00000000E+00  0.00000000E+00
  0.00000000E+00  0.00000000E+00  0.00000000E+00
  0.00000000E+00  0.00000000E+00  0.00000000E+00
  0.00000000E+00  0.00000000E+00  0.00000000E+00
  0.00000000E+00  0.00000000E+00  0.00000000E+00
  0.00000000E+00  0.00000000E+00  0.00000000E+00
  0.00000000E+00  0.00000000E+00  0.00000000E+00
