&control
  calculation ='scf'
  restart_mode ='from_scratch',
  prefix       ='ZnO',
  outdir='./temp'
  pseudo_dir='./GBRV_PBEsol'
  disk_io='low'
  etot_conv_thr=1.D-7,
  forc_conv_thr=1.D-6,
  verbosity    ='high',
!  tprnfor=.t.
!  tstress=.t.
  nstep=200
!  tefield = .true.
!  dipfield = .true.

 /
&system
  nosym = .true.,
  ibrav= 0,
  nat=  72,
  ntyp= 3,
  tot_charge = 0.0
  ecutwfc =  60,
  ecutrho = 500,
  occupations='smearing', smearing='mv', degauss=0.001,
!  eamp = 0.0
!  edir = 3
!  emaxpos = 0.1
!  eopreg = 0.05

!  input_dft='hse', nqx1=2, nqx2=2, nqx3=1,
!  x_gamma_extrapolation = .true.
!  vdw_corr = DFT-D3
/

&electrons
    mixing_mode = 'plain'
    mixing_beta = 0.5,
    conv_thr =  1.0d-8
!   Startingpot = 'file'
!   Startingwfc = 'file'
/

&IONS
  upscale           = 100.D0,
/

&CELL
  cell_dynamics     = 'bfgs'
  press_conv_thr    = 0.5d0
  cell_dofree = 'all'
/

ATOMIC_SPECIES
Zn 65.38   zn_pbesol_v1.uspp.F.UPF
O  15.999  o_pbesol_v1.2.uspp.F.UPF
Mg 24.305   mg_pbesol_v1.4.uspp.F.UPF

K_POINTS {automatic}
4 4 4 0 0 0 

CELL_PARAMETERS (angstrom)
   9.749208732   0.003994283  -0.004034189
  -4.871129776   8.444195695   0.004171274
  -0.004305950   0.002658169  10.311904267590

ATOMIC_POSITIONS (crystal)
Zn       0.222416997   0.112085889   0.194930594
Zn       0.223208070   0.110620507   0.695345241
Zn       0.224696989   0.445798063   0.195361244
Zn       0.221471657   0.444589387   0.694536065
Zn       0.222083526   0.777074922   0.192923072
Mg       0.224774909   0.780733651   0.695766133
Zn       0.556629353   0.111149334   0.194896567
Zn       0.555620975   0.111879781   0.695195297
Mg       0.555575541   0.445386740   0.194648136
Mg       0.555621108   0.444002119   0.694139080
Mg       0.553150559   0.776453387   0.195717557
Zn       0.556772646   0.779345166   0.691505473
Mg       0.890210266   0.112739450   0.192778285
Mg       0.890108395   0.110898985   0.693611754
Zn       0.889087453   0.444572766   0.192535319
Mg       0.888945766   0.445926031   0.697253606
Zn       0.886468137   0.777599902   0.195124291
Zn       0.890456422   0.777833060   0.694497701
Zn       0.109564380   0.222489907   0.445405654
Zn       0.111551315   0.221625725   0.944638197
Mg       0.109215814   0.556124803   0.444578414
Zn       0.112741235   0.555187903   0.943162512
Zn       0.112331291   0.888323299   0.443864736
Mg       0.109010329   0.888060919   0.947104689
Zn       0.443611609   0.221448433   0.443643787
Mg       0.444096253   0.221482216   0.945600615
Mg       0.441863371   0.553225292   0.445747852
Zn       0.444669308   0.556502434   0.942509072
Zn       0.442641349   0.889168664   0.445029307
Zn       0.446246278   0.887941327   0.944948720
Mg       0.776828047   0.223928923   0.444855338
Zn       0.777678032   0.220235020   0.942507432
Zn       0.778909520   0.554000486   0.445240604
Zn       0.776629399   0.556689587   0.944669200
Mg       0.779710907   0.889405198   0.443823195
Mg       0.774924845   0.885973365   0.942791798
O        0.222399495   0.110232574   0.002763418
O        0.221470211   0.110811207   0.502681603
O        0.222755385   0.443968552   0.002766375
O        0.220500306   0.444926811   0.502083178
O        0.222515407   0.777831639   0.000578735
O        0.221747407   0.777036319   0.504629965
O        0.556136574   0.110831001   0.002464909
O        0.554989774   0.111176486   0.502650363
O        0.554350626   0.443532539   0.002869865
O        0.555167101   0.444128793   0.502557916
O        0.555519766   0.776599410   0.004526488
O        0.556107743   0.777287291   0.498941304
O        0.888125815   0.108487347   0.001111159
O        0.886755269   0.110758634   0.502062449
O        0.888891000   0.443913039  -0.000090295
O        0.889300907   0.443950490   0.505631128
O        0.887531514   0.777871012   0.002804825
O        0.889624899   0.777486188   0.501992573
O        0.111140912   0.222864705   0.252673338
O        0.111657877   0.222362242   0.752298888
O        0.110944062   0.555419604   0.253048599
O        0.111840203   0.557690251   0.750890743
O        0.110422624   0.888426513   0.251136695
O        0.111847980   0.889010793   0.755490723
O        0.445232898   0.222968019   0.251019227
O        0.445191757   0.223149054   0.754469812
O        0.445688417   0.555897573   0.254758839
O        0.445038243   0.556285413   0.749912954
O        0.443501702   0.888869604   0.252553737
O        0.446356116   0.889774749   0.752702983
O        0.778986194   0.222787064   0.253390013
O        0.779332900   0.222630793   0.750068620
O        0.777654929   0.555078498   0.252493219
O        0.776776430   0.555568722   0.752524417
O        0.776437051   0.890606403   0.251949811
O        0.778538458   0.889278028   0.751394879

