&control
  calculation ='scf'
  restart_mode ='from_scratch',
  prefix       ='struc',
  outdir='./temp'
  pseudo_dir='./GBRV_PBE'
  disk_io='low'
  etot_conv_thr=1.D-7,
  forc_conv_thr=1.D-6,
  verbosity    ='high',
  tprnfor=.t.
  tstress=.t.
  nstep=200
!  tefield = .true.
!  dipfield = .true.

 /
&system
  nosym = .true.,
  ibrav= 0,
  nat=  5,
  ntyp= 3,
  tot_charge = 0.0
  ecutwfc =  50,
  ecutrho = 250,
!  occupations='tetrahedra_opt',
  occupations='smearing', smearing='mv', degauss=0.001,
!  eamp = 0.0
!  edir = 3
!  emaxpos = 0.1
!  eopreg = 0.05

!  input_dft='hse', nqx1=2, nqx2=2, nqx3=1,
!  x_gamma_extrapolation = .true.
!  vdw_corr = DFT-D3

   lda_plus_u = .TRUE.
   lda_plus_u_kind = 2
   U_projection_type = 'ortho-atomic',
   Hubbard_V(2,2,1)=2.2609
   Hubbard_V(3,3,1)=4.0710
   Hubbard_V(4,4,1)=4.0710
   Hubbard_V(5,5,1)=4.0710
   Hubbard_V(2,3,1)=1.5981
   Hubbard_V(2,4,1)=1.5981
   Hubbard_V(2,5,1)=1.5981
/

&electrons
    mixing_mode = 'plain'
    mixing_beta = 0.5,
    conv_thr =  1.0d-6
!   Startingpot = 'file'
!   Startingwfc = 'file'
/

&IONS
  upscale           = 100.D0,
/

&CELL
  cell_dynamics     = 'bfgs'
  press_conv_thr    = 0.5d0
  cell_dofree = 'all'
/

ATOMIC_SPECIES
Cs 132.9055 cs_pbe_v1.uspp.F.UPF
Sn 118.710 sn_pbe_v1.4.uspp.F.UPF
I 126.9045 i_pbe_v1.uspp.F.UPF

K_POINTS {automatic}
8 8 8 0 0 0 

CELL_PARAMETERS (angstrom)
   6.247850915   0.000000007   0.000000010
   0.000000007   6.247850266   0.000000017
   0.000000010   0.000000017   6.247851329

ATOMIC_POSITIONS (crystal)
Cs       0.500000963   0.499999435   0.499999765
Sn      -0.000005236   0.000003135   0.000001338
I        0.500000706  -0.000001040  -0.000000463
I        0.000001801   0.499999527  -0.000000477
I        0.000001767  -0.000001058   0.499999837

