&control
  calculation ='vc-relax'
  restart_mode ='from_scratch',
  prefix       ='ZnO',
  outdir='./temp'
  pseudo_dir='./GBRV_PBEsol'
  disk_io='low'
  etot_conv_thr=1.D-7,
  forc_conv_thr=1.D-6,
  verbosity    ='high',
  tprnfor=.t.
  tstress=.t.
  nstep=200
!  tefield = .true.
!  dipfield = .true.

 /
&system
  nosym = .true.,
  ibrav= 0,
  nat=  72,
  ntyp= 3,
  tot_charge = 0.0
  ecutwfc =  60,
  ecutrho = 500,
  occupations='smearing', smearing='mv', degauss=0.001,
!  eamp = 0.0
!  edir = 3
!  emaxpos = 0.1
!  eopreg = 0.05

!  input_dft='hse', nqx1=2, nqx2=2, nqx3=1,
!  x_gamma_extrapolation = .true.
!  vdw_corr = DFT-D3
/

&electrons
    mixing_mode = 'plain'
    mixing_beta = 0.5,
    conv_thr =  1.0d-8
!   Startingpot = 'file'
!   Startingwfc = 'file'
/

&IONS
  upscale           = 100.D0,
/

&CELL
  cell_dynamics     = 'bfgs'
  press_conv_thr    = 0.5d0
  cell_dofree = 'all'
/

ATOMIC_SPECIES
Zn 65.38   zn_pbesol_v1.uspp.F.UPF
O  15.999  o_pbesol_v1.2.uspp.F.UPF
Mg 24.305   mg_pbesol_v1.4.uspp.F.UPF

K_POINTS {automatic}
4 4 4 0 0 0 

CELL_PARAMETERS (angstrom)
     9.7002900000000007    0.0000000000000000    0.0000000000000000
    -4.8501299999999983    8.4006715833140397    0.0000000000000000
     0.0000000000000000    0.0000000000000000   10.4365000000000006

ATOMIC_POSITIONS (crystal)
Zn  0.222223 0.111110 0.193175
Zn  0.555557 0.444443 0.193175
Zn  0.888890 0.444443 0.193175
Zn  0.222223 0.111110 0.693175
Zn  0.555557 0.111110 0.693175
Zn  0.888890 0.111110 0.693175
Zn  0.222223 0.444443 0.693175
Zn  0.888890 0.444443 0.693175
Zn  0.555557 0.777777 0.693175
Zn  0.888890 0.777777 0.693175
Zn  0.444443 0.222223 0.443175
Zn  0.777777 0.222223 0.443175
Zn  0.444443 0.555557 0.443175
Zn  0.777777 0.555557 0.443175
Zn  0.444443 0.888890 0.443175
Zn  0.111110 0.222223 0.943175
Zn  0.444443 0.222223 0.943175
Zn  0.444443 0.555557 0.943175
Zn  0.111110 0.888890 0.943175
Zn  0.444443 0.888890 0.943175
Mg  0.555557 0.111110 0.193175
Mg  0.888890 0.111110 0.193175
Mg  0.222223 0.444443 0.193175
Mg  0.222223 0.777777 0.193175
Mg  0.555557 0.777777 0.193175
Mg  0.888890 0.777777 0.193175
Mg  0.555557 0.444443 0.693175
Mg  0.222223 0.777777 0.693175
Mg  0.111110 0.222223 0.443175
Mg  0.111110 0.555557 0.443175
Mg  0.111110 0.888890 0.443175
Mg  0.777777 0.888890 0.443175
Mg  0.777777 0.222223 0.943175
Mg  0.111110 0.555557 0.943175
Mg  0.777777 0.555557 0.943175
Mg  0.777777 0.888890 0.943175
O  0.222223 0.111110 0.003675
O  0.555557 0.111110 0.003675
O  0.888890 0.111110 0.003675
O  0.222223 0.444443 0.003675
O  0.555557 0.444443 0.003675
O  0.888890 0.444443 0.003675
O  0.222223 0.777777 0.003675
O  0.555557 0.777777 0.003675
O  0.888890 0.777777 0.003675
O  0.222223 0.111110 0.503675
O  0.555557 0.111110 0.503675
O  0.888890 0.111110 0.503675
O  0.222223 0.444443 0.503675
O  0.555557 0.444443 0.503675
O  0.888890 0.444443 0.503675
O  0.222223 0.777777 0.503675
O  0.555557 0.777777 0.503675
O  0.888890 0.777777 0.503675
O  0.111110 0.222223 0.253675
O  0.444443 0.222223 0.253675
O  0.777777 0.222223 0.253675
O  0.111110 0.555557 0.253675
O  0.444443 0.555557 0.253675
O  0.777777 0.555557 0.253675
O  0.111110 0.888890 0.253675
O  0.444443 0.888890 0.253675
O  0.777777 0.888890 0.253675
O  0.111110 0.222223 0.753675
O  0.444443 0.222223 0.753675
O  0.777777 0.222223 0.753675
O  0.111110 0.555557 0.753675
O  0.444443 0.555557 0.753675
O  0.777777 0.555557 0.753675
O  0.111110 0.888890 0.753675
O  0.444443 0.888890 0.753675
O  0.777777 0.888890 0.753675

