&control
  calculation ='relax'
  restart_mode ='from_scratch',
  prefix       ='ZnO',
  outdir='./temp'
  pseudo_dir='./GBRV_PBEsol'
  disk_io='low'
  etot_conv_thr=1.D-7,
  forc_conv_thr=1.D-6,
  verbosity    ='high',
  tprnfor=.t.
  tstress=.t.
  nstep=200
!  tefield = .true.
!  dipfield = .true.

 /
&system
  nosym = .true.,
  ibrav= 0,
  nat=  72,
  ntyp= 3,
  tot_charge = 0.0
  ecutwfc =  60,
  ecutrho = 500,
  occupations='smearing', smearing='mv', degauss=0.001,
!  eamp = 0.0
!  edir = 3
!  emaxpos = 0.1
!  eopreg = 0.05

!  input_dft='hse', nqx1=2, nqx2=2, nqx3=1,
!  x_gamma_extrapolation = .true.
!  vdw_corr = DFT-D3
/

&electrons
    mixing_mode = 'plain'
    mixing_beta = 0.5,
    conv_thr =  1.0d-8
!   Startingpot = 'file'
!   Startingwfc = 'file'
/

&IONS
  upscale           = 100.D0,
/

&CELL
  cell_dynamics     = 'bfgs'
  press_conv_thr    = 0.5d0
  cell_dofree = 'all'
/

ATOMIC_SPECIES
Zn 65.38   zn_pbesol_v1.uspp.F.UPF
O  15.999  o_pbesol_v1.2.uspp.F.UPF
Mg 24.305   mg_pbesol_v1.4.uspp.F.UPF

K_POINTS {automatic}
4 4 4 0 0 0 

CELL_PARAMETERS (angstrom)
   9.727221948   0.004474116  -0.000151625
  -4.859720513   8.425856334   0.001991961
  -0.000166011   0.002370583  10.29806174727

ATOMIC_POSITIONS (crystal)
Zn       0.221746989   0.112029239   0.193965167
Zn       0.223513454   0.109534925   0.693923993
Zn       0.222751111   0.444396590   0.192924389
Zn       0.223155013   0.445630265   0.692757522
Zn       0.223105136   0.778511630   0.194758520
Zn       0.222875581   0.777877514   0.694759283
Zn       0.554329510   0.111036177   0.194186695
Zn       0.555622688   0.110235321   0.693989030
Zn       0.555373940   0.445743580   0.191704640
Mg       0.556007720   0.442180589   0.694258395
Mg       0.556571319   0.779870940   0.193866682
Zn       0.555587790   0.777365170   0.692182346
Zn       0.890672856   0.111393671   0.193278499
Zn       0.886452305   0.110419593   0.693596074
Mg       0.889811271   0.446515907   0.195491818
Zn       0.888413341   0.443918587   0.692051605
Zn       0.888881404   0.778791889   0.193146687
Mg       0.890266303   0.777950990   0.695223905
Mg       0.109718591   0.221535731   0.445509591
Zn       0.110197117   0.221647106   0.942630562
Zn       0.112788194   0.555666217   0.444218290
Zn       0.108794078   0.554381797   0.944291871
Zn       0.110930606   0.888559603   0.443803458
Zn       0.112295001   0.889292821   0.944266087
Zn       0.444835033   0.223092006   0.443832256
Zn       0.443871942   0.220549466   0.944538593
Mg       0.444239203   0.554958659   0.442883519
Mg       0.443586775   0.556543075   0.942394820
Zn       0.444343459   0.889921134   0.444116184
Zn       0.444866138   0.888844349   0.944334994
Zn       0.776461736   0.220469206   0.442254630
Mg       0.777775488   0.222621819   0.944176009
Zn       0.776177959   0.556213705   0.443043829
Zn       0.779079418   0.554124247   0.942873385
Zn       0.778624912   0.889425790   0.443688431
Zn       0.776472351   0.889216680   0.943432701
O        0.221764118   0.111287449   0.003711124
O        0.222084459   0.111035105   0.503115414
O        0.221924279   0.444031780   0.002306026
O        0.222967153   0.443705302   0.502510268
O        0.222306846   0.777061752   0.003817367
O        0.222222078   0.777668245   0.504111084
O        0.555941547   0.110799299   0.003520721
O        0.555440821   0.111575603   0.503595895
O        0.555061184   0.444810336   0.000682405
O        0.554907840   0.444702596   0.504512924
O        0.555027003   0.776981755   0.004404676
O        0.555309577   0.777209210   0.501218950
O        0.888643157   0.111206643   0.002728761
O        0.888114512   0.110937770   0.503339185
O        0.888179185   0.443168715   0.005696914
O        0.888556113   0.444216213   0.500958963
O        0.888651011   0.777487510   0.001949583
O        0.889062268   0.777877898   0.505049340
O        0.111466438   0.223123960   0.255383404
O        0.110843751   0.221588405   0.751431519
O        0.111820603   0.556069552   0.253510633
O        0.110472853   0.554888701   0.753363355
O        0.111006492   0.889279722   0.253219986
O        0.111527922   0.888445173   0.754034770
O        0.444533012   0.223707122   0.253090012
O        0.444595081   0.221181202   0.753893923
O        0.445275912   0.557511818   0.252597072
O        0.445555758   0.554779811   0.752371298
O        0.444797470   0.889604493   0.253769931
O        0.444997296   0.888148170   0.753574403
O        0.778135406   0.222930424   0.251465403
O        0.777556703   0.222729437   0.754431455
O        0.777323133   0.556501932   0.252713804
O        0.777979065   0.555497731   0.752287506
O        0.778187375   0.889656351   0.253125122
O        0.777566851   0.888126830   0.752842346

