&control
  calculation ='scf'
  restart_mode ='from_scratch',
  prefix       ='ZnO',
  outdir='./temp'
  pseudo_dir='./GBRV_PBEsol'
  disk_io='low'
  etot_conv_thr=1.D-7,
  forc_conv_thr=1.D-6,
  verbosity    ='high',
  tprnfor=.t.
  tstress=.t.
  nstep=200
!  tefield = .true.
!  dipfield = .true.

 /
&system
  nosym = .true.,
  ibrav= 0,
  nat=  72,
  ntyp= 3,
  tot_charge = 0.0
  ecutwfc =  60,
  ecutrho = 500,
  occupations='smearing', smearing='mv', degauss=0.001,
!  eamp = 0.0
!  edir = 3
!  emaxpos = 0.1
!  eopreg = 0.05

!  input_dft='hse', nqx1=2, nqx2=2, nqx3=1,
!  x_gamma_extrapolation = .true.
!  vdw_corr = DFT-D3
/

&electrons
    mixing_mode = 'plain'
    mixing_beta = 0.5,
    conv_thr =  1.0d-8
!   Startingpot = 'file'
!   Startingwfc = 'file'
/

&IONS
  upscale           = 100.D0,
/

&CELL
  cell_dynamics     = 'bfgs'
  press_conv_thr    = 0.5d0
  cell_dofree = 'all'
/

ATOMIC_SPECIES
Zn 65.38   zn_pbesol_v1.uspp.F.UPF
O  15.999  o_pbesol_v1.2.uspp.F.UPF
Mg 24.305   mg_pbesol_v1.4.uspp.F.UPF

K_POINTS {automatic}
4 4 4 0 0 0 

CELL_PARAMETERS (angstrom)
   9.724698783   0.000056463   0.000169329  
  -4.862285454   8.421506504  -0.000214622
   0.000182595  -0.000161180  10.410869195

ATOMIC_POSITIONS (crystal)
Mg	0.444560726	0.888970837	0.504851282   
Mg	0.888398463	0.7771534	0.751310139   
Mg	0.887412416	0.109817828	0.753567649   
Mg	0.223718202	0.445161961	0.755197372   
Mg	0.775576157	0.887472715	0.003847165   
Mg	0.113006849	0.889079059	0.003957713   
O	0.889837845	0.778823814	0.001043463   
O	0.888470508	0.11071364	0.001572074   
O	0.222095529	0.444151865	0.002287564   
O	0.554869665	0.110346537	0.002931859   
O	0.222908623	0.777651978	0.003385296   
O	0.222170645	0.111128017	0.003450855   
O	0.554539676	0.777453298	0.003614321   
O	0.889168855	0.444815465	0.003847165   
O	0.55595118	0.444773274	0.003957713   
O	0.777758602	0.888985947	0.250681355   
O	0.111281937	0.888743568	0.251314333   
O	0.777450389	0.222017986	0.253157399   
O	0.110891502	0.22251878	0.25325505    
O	0.777925056	0.555707187	0.25328378    
O	0.444040779	0.555292626	0.253565727   
O	0.111361054	0.555366958	0.253589371   
O	0.444732678	0.222179187	0.253865274   
O	0.444600027	0.889197221	0.255788018   
O	0.221950393	0.777981633	0.502993341   
O	0.221586365	0.1105607	0.503001867   
O	0.556472234	0.778184056	0.503014662   
O	0.888878474	0.778074845	0.503602489   
O	0.888823166	0.444446561	0.503654213   
O	0.555656217	0.111184175	0.5036621     
O	0.555851351	0.444674022	0.503858676   
O	0.888377391	0.110516338	0.504021366   
O	0.222425373	0.444591778	0.504851282   
O	0.444611063	0.888521841	0.751310139   
O	0.110205243	0.222521007	0.751990687   
O	0.111285881	0.555443864	0.753032138   
O	0.777778598	0.222046019	0.753411823   
O	0.777974977	0.555771846	0.753466566   
O	0.445364809	0.556044355	0.753567649   
O	0.443249442	0.221978589	0.753841912   
O	0.109643409	0.888349632	0.755118241   
O	0.779767835	0.889295723	0.755197372   
Zn	0.888596041	0.776769538	0.250681355   
Zn	0.889497959	0.112530422	0.251314333   
Zn	0.222176489	0.444362403	0.253157399   
Zn	0.554887164	0.110094557	0.25325505    
Zn	0.223982913	0.77747855	0.25328378    
Zn	0.553471805	0.777461892	0.253565727   
Zn	0.222917013	0.112544666	0.253589371   
Zn	0.889093936	0.444450377	0.253865274   
Zn	0.555468256	0.444336445	0.255788018   
Zn	0.778488456	0.88883029	0.502993341   
Zn	0.110038444	0.887947275	0.503001867   
Zn	0.778145024	0.556124101	0.503014662   
Zn	0.110605215	0.222765521	0.503602489   
Zn	0.777773861	0.222227888	0.503654213   
Zn	0.444432192	0.555496422	0.5036621     
Zn	0.111151048	0.555332618	0.503858676   
Zn	0.444812978	0.222484898	0.504021366   
Zn	0.220241889	0.77824598	0.751990687   
Zn	0.559307932	0.778296952	0.753032138   
Zn	0.555906823	0.112972	0.753411823   
Zn	0.220724278	0.109802761	0.753466566   
Zn	0.556152063	0.444299701	0.753841912   
Zn	0.888085677	0.444233552	0.755118241   
Zn	0.443850558	0.887568423	0.001043463   
Zn	0.111492434	0.221930589	0.001572074   
Zn	0.111232091	0.556077468	0.002287564   
Zn	0.777656754	0.223213219	0.002931859   
Zn	0.444945156	0.555919827	0.003385296   
Zn	0.777977534	0.555611924	0.003450855   
Zn	0.444258429	0.222879608	0.003614321   

