&control
  calculation ='scf'
  restart_mode ='from_scratch',
  prefix       ='ZnO',
  outdir='./temp'
  pseudo_dir='./GBRV_PBEsol'
  disk_io='low'
  etot_conv_thr=1.D-7,
  forc_conv_thr=1.D-6,
  verbosity    ='high',
!  tprnfor=.t.
!  tstress=.t.
  nstep=200
!  tefield = .true.
!  dipfield = .true.

 /
&system
  nosym = .true.,
  ibrav= 0,
  nat=  72,
  ntyp= 3,
  tot_charge = 0.0
  ecutwfc =  60,
  ecutrho = 500,
  occupations='smearing', smearing='mv', degauss=0.001,
!  eamp = 0.0
!  edir = 3
!  emaxpos = 0.1
!  eopreg = 0.05

!  input_dft='hse', nqx1=2, nqx2=2, nqx3=1,
!  x_gamma_extrapolation = .true.
!  vdw_corr = DFT-D3
/

&electrons
    mixing_mode = 'plain'
    mixing_beta = 0.5,
    conv_thr =  1.0d-8
!   Startingpot = 'file'
!   Startingwfc = 'file'
/

&IONS
  upscale           = 100.D0,
/

&CELL
  cell_dynamics     = 'bfgs'
  press_conv_thr    = 0.5d0
  cell_dofree = 'all'
/

ATOMIC_SPECIES
Zn 65.38   zn_pbesol_v1.uspp.F.UPF
O  15.999  o_pbesol_v1.2.uspp.F.UPF
Mg 24.305   mg_pbesol_v1.4.uspp.F.UPF

K_POINTS {automatic}
4 4 4 0 0 0 

CELL_PARAMETERS (angstrom)
   9.760484460  -0.006522928   0.006380063
  -4.885876579   8.462586866  -0.002526486
   0.006803180   0.000805560  10.286372985490

ATOMIC_POSITIONS (crystal)
Zn       0.219694347   0.110212280   0.196406558
Zn       0.554049608   0.443752990   0.193645862
Zn       0.891561910   0.444539401   0.193594704
Zn       0.222922572   0.110942583   0.696387315
Zn       0.556411970   0.111274804   0.693416809
Zn       0.887313699   0.111712534   0.691774325
Zn       0.222699751   0.446223945   0.693328456
Zn       0.888392109   0.444874186   0.694210378
Zn       0.554174691   0.777713022   0.694024338
Zn       0.887820422   0.775329970   0.691711307
Zn       0.443772450   0.223911258   0.445434209
Zn       0.778686344   0.223387055   0.442941063
Zn       0.444298252   0.554378868   0.444100088
Zn       0.776413353   0.553958561   0.442432321
Zn       0.441380140   0.887122611   0.442951000
Zn       0.109737386   0.221939661   0.944287046
Zn       0.443242641   0.219643044   0.945604737
Zn       0.443150912   0.556062015   0.945318396
Zn       0.109002177   0.887618318   0.944186173
Zn       0.445740710   0.890250714   0.945960423
Mg       0.554341949   0.112416150   0.197644662
Mg       0.890837742   0.110731315   0.196056148
Mg       0.222924413   0.441569667   0.195602966
Mg       0.222461973   0.779520727   0.193515272
Mg       0.556288163   0.778152784   0.196117889
Mg       0.890039867   0.779737157   0.196382877
Mg       0.555816759   0.444607151   0.696222972
Mg       0.224233394   0.778809799   0.695117029
Mg       0.113559469   0.222937634   0.447759981
Mg       0.111327170   0.556284085   0.444096154
Mg       0.113743244   0.890250776   0.446397069
Mg       0.775438049   0.887821807   0.445825261
Mg       0.777964152   0.222006941   0.945687796
Mg       0.111839903   0.554159839   0.943742899
Mg       0.780205111   0.556555873   0.946901038
Mg       0.779591082   0.889575247   0.942269961
O        0.220510418   0.110061107   0.002719168
O        0.556376586   0.111748363   0.005460238
O        0.887601687   0.109942835   0.003587225
O        0.221464747   0.443519562   0.003872292
O        0.555672547   0.444243813  -0.000019763
O        0.890155453   0.444261551   0.000526227
O        0.221410487   0.776584234   0.000959609
O        0.557517108   0.778796752   0.003494615
O        0.887699625   0.777831825   0.004333058
O        0.222294655   0.110905341   0.503811344
O        0.555325570   0.111012821   0.500052359
O        0.889244181   0.110977951   0.499389611
O        0.221594665   0.444942400   0.500389231
O        0.556001165   0.445153719   0.504510592
O        0.888876228   0.444786460   0.501475553
O        0.220707171   0.776693755   0.503350445
O        0.553550004   0.777079918   0.500995015
O        0.889080629   0.777866394   0.498632034
O        0.110819438   0.222113167   0.255932524
O        0.442937797   0.222814532   0.252895839
O        0.778166603   0.221727385   0.249724690
O        0.114437205   0.556944132   0.251523705
O        0.444907233   0.556054066   0.251560408
O        0.778216289   0.555299440   0.249178453
O        0.111288573   0.888150768   0.254601910
O        0.444275137   0.889166252   0.250420213
O        0.777802377   0.889109700   0.253415972
O        0.110563774   0.222782437   0.750679313
O        0.445309815   0.222203282   0.752665459
O        0.777840948   0.222621486   0.753418057
O        0.111596637   0.556730774   0.751710071
O        0.444409126   0.555799658   0.752270776
O        0.777374680   0.555478460   0.754586120
O        0.110318204   0.887724244   0.750708602
O        0.445559173   0.890122145   0.752881858
O        0.778016177   0.888764498   0.749831694

