&control
  calculation ='nscf'
  restart_mode ='from_scratch',
  prefix       ='ZnO',
  outdir='./temp'
  pseudo_dir='./GBRV_PBEsol'
  disk_io='low'
  etot_conv_thr=1.D-7,
  forc_conv_thr=1.D-6,
  verbosity    ='high',
!  tprnfor=.t.
!  tstress=.t.
  nstep=200
nppstr=8
gdir = 3
lberry=.true.
!  tefield = .true.
!  dipfield = .true.

 /
&system
  nosym = .true.,
  ibrav= 0,
  nat=  72,
  ntyp= 3,
  tot_charge = 0.0
  ecutwfc =  60,
  ecutrho = 500,
!  occupations='smearing', smearing='mv', degauss=0.001,
!  eamp = 0.0
!  edir = 3
!  emaxpos = 0.1
!  eopreg = 0.05

!  input_dft='hse', nqx1=2, nqx2=2, nqx3=1,
!  x_gamma_extrapolation = .true.
!  vdw_corr = DFT-D3
/

&electrons
    mixing_mode = 'plain'
    mixing_beta = 0.5,
    conv_thr =  1.0d-8
!   Startingpot = 'file'
!   Startingwfc = 'file'
/

&IONS
  upscale           = 100.D0,
/

&CELL
  cell_dynamics     = 'bfgs'
  press_conv_thr    = 0.5d0
  cell_dofree = 'all'
/

ATOMIC_SPECIES
Zn 65.38   zn_pbesol_v1.uspp.F.UPF
O  15.999  o_pbesol_v1.2.uspp.F.UPF
Mg 24.305   mg_pbesol_v1.4.uspp.F.UPF

K_POINTS {automatic}
4 4 8 0 0 0 

CELL_PARAMETERS (angstrom)
   9.749208732   0.003994283  -0.004034189
  -4.871129776   8.444195695   0.004171274
  -0.004305950   0.002658169  10.26008565318

ATOMIC_POSITIONS (crystal)
Zn       0.222395849   0.112128759   0.195308867
Zn       0.223237788   0.110601605   0.695694074
Zn       0.224746064   0.445845584   0.195761880
Zn       0.221427710   0.444550303   0.694849209
Zn       0.222091612   0.777014385   0.193164541
Mg       0.224778312   0.780776254   0.696210542
Zn       0.556729707   0.111162904   0.195276105
Zn       0.555584186   0.111902650   0.695524612
Mg       0.555595062   0.445472174   0.194991899
Mg       0.555650836   0.443950663   0.694467950
Mg       0.553142526   0.776426926   0.196216838
Zn       0.556802380   0.779395729   0.691715130
Mg       0.890185497   0.112758439   0.193101302
Mg       0.890157576   0.110929170   0.693970080
Zn       0.889082350   0.444536464   0.192795846
Mg       0.888935575   0.445964483   0.697699738
Zn       0.886377877   0.777582234   0.195530242
Zn       0.890508730   0.777841616   0.694826494
Zn       0.109526709   0.222476078   0.445751000
Zn       0.111572268   0.221613332   0.945000423
Mg       0.109188734   0.556121599   0.444972886
Zn       0.112776742   0.555182491   0.943447742
Zn       0.112341518   0.888285442   0.444120408
Mg       0.108964633   0.888094698   0.947533805
Zn       0.443606678   0.221463328   0.443883531
Mg       0.444057127   0.221418018   0.946051846
Mg       0.441821967   0.553210401   0.446216453
Zn       0.444694246   0.556528520   0.942750550
Zn       0.442593136   0.889164762   0.445367720
Zn       0.446325984   0.887948282   0.945318585
Mg       0.776858428   0.223957883   0.445306639
Zn       0.777634797   0.220162645   0.942760475
Zn       0.778932242   0.553969967   0.445601841
Zn       0.776594677   0.556716073   0.945046909
Mg       0.779733303   0.889412708   0.444171706
Mg       0.774891500   0.885920447   0.943124900
O        0.222383163   0.110226666   0.002420739
O        0.221464623   0.110786712   0.502292560
O        0.222791672   0.443987599   0.002427809
O        0.220447904   0.444904049   0.501687052
O        0.222517521   0.777848631   0.000053361
O        0.221728698   0.777032251   0.504433136
O        0.556165507   0.110826685   0.002113710
O        0.554967205   0.111192682   0.502255858
O        0.554296082   0.443509782   0.002557217
O        0.555160516   0.444109789   0.502232140
O        0.555528525   0.776549337   0.004370568
O        0.556128538   0.777314585   0.498396185
O        0.888097602   0.108437794   0.000769721
O        0.886724511   0.110722050   0.501777324
O        0.888886854   0.443882556  -0.000601991
O        0.889310363   0.443956317   0.505461071
O        0.887500941   0.777872264   0.002486442
O        0.889641355   0.777491491   0.501589576
O        0.111098876   0.222875276   0.252297051
O        0.111677771   0.222355667   0.751938225
O        0.110913313   0.555419877   0.252792539
O        0.111854392   0.557711896   0.750427528
O        0.110423532   0.888396676   0.250633474
O        0.111840643   0.889025607   0.755296020
O        0.445281564   0.223019327   0.250498742
O        0.445198712   0.223168193   0.754282221
O        0.445699577   0.555880945   0.254600742
O        0.445081593   0.556302588   0.749379479
O        0.443462950   0.888868955   0.252164176
O        0.446398944   0.889778989   0.752341425
O        0.779044129   0.222825663   0.253193105
O        0.779343418   0.222627552   0.749571252
O        0.777656846   0.555039170   0.252121325
O        0.776750575   0.555595670   0.752179315
O        0.776445640   0.890674949   0.251656357
O        0.778541616   0.889294742   0.751061778

