&control
  calculation ='relax'
  restart_mode ='from_scratch',
  prefix       ='ZnO',
  outdir='./temp'
  pseudo_dir='./GBRV_PBEsol'
  disk_io='low'
  etot_conv_thr=1.D-7,
  forc_conv_thr=1.D-6,
  verbosity    ='high',
  tprnfor=.t.
  tstress=.t.
  nstep=200
!  tefield = .true.
!  dipfield = .true.

 /
&system
  nosym = .true.,
  ibrav= 0,
  nat=  72,
  ntyp= 3,
  tot_charge = 0.0
  ecutwfc =  60,
  ecutrho = 500,
  occupations='smearing', smearing='mv', degauss=0.001,
!  eamp = 0.0
!  edir = 3
!  emaxpos = 0.1
!  eopreg = 0.05

!  input_dft='hse', nqx1=2, nqx2=2, nqx3=1,
!  x_gamma_extrapolation = .true.
!  vdw_corr = DFT-D3
/

&electrons
    mixing_mode = 'plain'
    mixing_beta = 0.5,
    conv_thr =  1.0d-8
!   Startingpot = 'file'
!   Startingwfc = 'file'
/

&IONS
  upscale           = 100.D0,
/

&CELL
  cell_dynamics     = 'bfgs'
  press_conv_thr    = 0.5d0
  cell_dofree = 'all'
/

ATOMIC_SPECIES
Zn 65.38   zn_pbesol_v1.uspp.F.UPF
O  15.999  o_pbesol_v1.2.uspp.F.UPF
Mg 24.305   mg_pbesol_v1.4.uspp.F.UPF

K_POINTS {automatic}
4 4 4 0 0 0 

CELL_PARAMETERS (angstrom)
   9.724698783   0.000056463   0.000169329
  -4.862285454   8.421506504  -0.000214622
   0.000182595  -0.000161180  10.51497788695

ATOMIC_POSITIONS (crystal)
Zn       0.222917860   0.112545273   0.193546985
Zn       0.554887495   0.110095004   0.193152496
Zn       0.889498471   0.112530592   0.191939236
Zn       0.222176050   0.444361415   0.192779703
Zn       0.555468207   0.444335880   0.194169407
Zn       0.889092604   0.444449747   0.194005378
Zn       0.223983452   0.777479096   0.193277304
Zn       0.553471393   0.777462030   0.193431750
Zn       0.888595467   0.776769200   0.191305791
Zn       0.220725980   0.109803537   0.693946947
Zn       0.555908179   0.112974663   0.693931452
Zn       0.556152183   0.444299577   0.694524210
Zn       0.888084063   0.444233206   0.694594701
Zn       0.220240685   0.778245640   0.693402823
Zn       0.559308767   0.778295595   0.693724091
Zn       0.110605879   0.222766058   0.443386464
Zn       0.444814677   0.222486294   0.444469077
Zn       0.777774101   0.222228961   0.443574710
Zn       0.111150256   0.555332248   0.444057150
Zn       0.444432500   0.555495983   0.443979080
Zn       0.778144482   0.556123392   0.443324398
Zn       0.110037344   0.887946177   0.441952929
Zn       0.778488378   0.888829336   0.441210376
Zn       0.111494176   0.221932108   0.942348102
Zn       0.444259084   0.222880360   0.944235411
Zn       0.777656929   0.223214550   0.943607993
Zn       0.111232079   0.556077814   0.943253603
Zn       0.444945321   0.555920042   0.943721148
Zn       0.777976318   0.555610264   0.943866347
Zn       0.443849685   0.887567561   0.942188462
Mg       0.887412385   0.109817539   0.694113905
Mg       0.223718258   0.445161652   0.694754145
Mg       0.888397927   0.777153317   0.693287231
Mg       0.444560545   0.888970837   0.445557201
Mg       0.113007209   0.889079051   0.944899538
Mg       0.775575422   0.887472256   0.944894244
O        0.222170721   0.111128122   0.003450983
O        0.554869874   0.110346551   0.002931816
O        0.888470972   0.110713812   0.001572097
O        0.222095517   0.444151984   0.002287533
O        0.555951037   0.444773266   0.003957838
O        0.889168674   0.444815604   0.003847303
O        0.222908423   0.777652042   0.003385221
O        0.554539657   0.777453442   0.003614125
O        0.889837579   0.778823447   0.001043484
O        0.221586687   0.110560670   0.503001784
O        0.555656628   0.111184488   0.503662332
O        0.888377621   0.110516440   0.504020970
O        0.222425205   0.444591712   0.504851022
O        0.555851077   0.444673882   0.503858937
O        0.888823189   0.444446406   0.503654253
O        0.221949990   0.777981423   0.502993377
O        0.556472186   0.778183895   0.503014661
O        0.888878305   0.778074572   0.503602195
O        0.110891797   0.222518624   0.253254887
O        0.444733010   0.222179181   0.253865163
O        0.777450523   0.222017832   0.253157173
O        0.111360950   0.555367001   0.253589107
O        0.444040398   0.555292412   0.253565471
O        0.777924870   0.555707209   0.253283800
O        0.111281946   0.888743618   0.251314043
O        0.444599889   0.889197455   0.255787742
O        0.777758192   0.888985825   0.250681028
O        0.110205520   0.222520584   0.751990903
O        0.443249718   0.221978811   0.753842291
O        0.777779011   0.222046215   0.753412102
O        0.111285406   0.555443699   0.753032529
O        0.445364622   0.556044053   0.753567999
O        0.777974803   0.555771695   0.753466554
O        0.109643561   0.888349995   0.755118136
O        0.444611126   0.888521999   0.751310401
O        0.779767504   0.889295778   0.755196950

