Image 10
1.0
    5.258965    -0.053259     0.153663
    0.027337     5.078433     0.019280
   -0.201486    -0.020941     5.077139
  Hf   O
   4   8
Direct
   -0.000004     0.000076    -0.000009
    0.501149     0.494509     1.002259
    1.007456     0.489359     0.499800
    0.506457     0.005305     0.501891
    0.207429     0.244335     0.251776
    0.707357     0.249317     0.251732
    0.300438     0.244276     0.751967
    0.800515     0.250819     0.751735
    0.328251     0.742298     0.259683
    0.828286     0.750946     0.258784
    0.178678     0.741088     0.760099
    0.678597     0.754330     0.760521