Image 11
1.0
    4.838075     0.000595    -0.059659
    0.010448     5.336255    -0.000902
    0.062292    -0.002470     4.831448
  Hf   O
   4   8
Direct
    0.000004     0.000076     0.000007
    0.498501     0.469656     1.000841
    0.991848     0.469430     0.501145
    0.493309    -0.000208     0.500175
    0.244869     0.237811     0.250982
    0.744876     0.231772     0.251449
    0.246634     0.237697     0.750602
    0.746468     0.231523     0.751798
    0.505353     0.614235     0.507163
    1.004245     0.855252     0.506274
    0.989179     0.614252     1.007785
    0.488008     0.855252     1.007130