Image 20
1.0
        5.2661056519         0.0000000000         0.0000000000
        0.0000000000         5.0468831062         0.0000000000
        0.0000000000        -0.0001676649         5.0771846744
   Hf    O
    4    8
Direct
     0.000068581         0.000076141         0.000152156
     0.500065783         0.466918106         0.000155210
     0.934152247         0.466918088         0.500155199
     0.434149394         0.000076141         0.500152194
     0.197260591         0.271071408         0.250251206
     0.697261791         0.195917882         0.250226717
     0.236957394         0.271071414         0.750251183
     0.736956194         0.195917888         0.750226671
     0.332399425         0.801404332         0.143232148
     0.832408050         0.665581156         0.143235564
     0.101818582         0.801404314         0.643232183
     0.601809029         0.665581185         0.643235564
