Image 10
1.0
    4.866006    -0.022662     0.006945
    0.026728     5.317887     0.044010
   -0.010420    -0.013344     4.835414
  Hf   O
   4   8
Direct
   -0.000004     0.000076    -0.000009
    0.499362     0.469706     0.996023
    1.015374     0.469768     0.495899
    0.516015     0.000101     0.499859
    0.257214     0.227054     0.247035
    0.756309     0.242855     0.246553
    0.258334     0.227097     0.746855
    0.759189     0.242886     0.746711
    0.485351     0.614898     0.488692
    0.984922     0.855077     0.485990
    1.029745     0.614904     0.988460
    0.529368     0.855095     0.985814