Image 11
1.0
    5.290266    -0.082934    -0.026497
    0.075058     4.994161    -0.031437
    0.028447     0.032212     5.076026
  Hf   O
   4   8
Direct
   -0.000032     0.000076     0.000007
    0.499821     0.451216     0.999939
    0.060817     0.451437     0.499792
    0.560908     0.000084     0.500084
    0.280930     0.178154     0.250631
    0.780783     0.273388     0.250642
    0.279793     0.178068     0.750561
    0.780000     0.273184     0.750719
    0.405575     0.637173     0.509056
    0.905510     0.814176     0.508593
    0.155350     0.637346     1.009071
    0.655235     0.814241     1.008592