Image 1
   1.00000000000000
     5.2661308144980410    0.0000000000000000    0.0000000000000000
     0.0000000000000000    5.0468923157058780    0.0000823493704755
     0.0000000000000000    0.0000829433097709    5.0772053360097029
   Hf   O
     4     8
Direct
 -0.0000685400808857  0.0000761412711116 -0.0001536500727345
  0.4999323841231917  0.4669185176146327  0.9998432128256587
  1.0658496148768103  0.4669185176146327  0.4998432128256587
  0.5658505610808826  0.0000761412711116  0.4998463499272655
  0.2630441118941958  0.1959135695903476  0.2497740112654197
  0.7630436090632352  0.2710750030405954  0.2497473265518990
  0.3027379091058082  0.1959135695903476  0.7497739412654211
  0.8027384109367651  0.2710750030405954  0.7497473505519010
  0.3981939907578281  0.6655782618849817  0.3567665645401389
  0.8981827780052679  0.8014074705983175  0.3567695138896271
  0.1675889802421764  0.6655782618849817  0.8567665885401411
  0.6675991519947321  0.8014074705983175  0.8567695608896274