Image 1
1.0
        5.2661309242         0.0000000000         0.0000000000
        0.0000000000         5.0468921661         0.0000000000
        0.0000000000         0.0001656373         5.0772051784
   Hf    O
    4    8
Direct
     0.000001479         0.000076141         0.999846352
     0.500002400         0.466918556         0.999843253
     0.065919661         0.466918526         0.499843205
     0.565920600         0.000076141         0.499846352
     0.263114122         0.195913562         0.249774012
     0.763113624         0.271075008         0.249747316
     0.302807927         0.195913569         0.749773918
     0.802808470         0.271075015         0.749747340
     0.398263988         0.665578233         0.356766541
     0.898252760         0.801407495         0.356769499
     0.167658966         0.665578215         0.856766612
     0.667669198         0.801407525         0.856769523
