Image 20
1.0
        5.2661056519         0.0000000000         0.0000000000
        0.0000000000         5.0468831062         0.0000000000
        0.0000000000        -0.0001669888         5.0771846744
   Hf    O
    4    8
Direct
     0.565918562         0.000076141         0.500152194
     0.065915784         0.466918115         0.500155199
     0.500002264         0.466918106         0.000155210
     0.000000000         0.000076141         0.000152171
     0.763110586         0.271071408         0.750251183
     0.263111808         0.195917882         0.750226718
     0.802807433         0.271071398         0.250251183
     0.302806166         0.195917884         0.250226670
     0.898249374         0.801404322         0.643232183
     0.398258022         0.665581146         0.643235564
     0.667668599         0.801404313         0.143232171
     0.167659024         0.665581184         0.143235564
