Image 20
   1.00000000000000
     5.2661057030664775    0.0000000000000000    0.0000000000000000
     0.0000000000000000    5.0468830613136797   -0.0000831626370019
     0.0000000000000000   -0.0000837489868582    5.0771847578699658
   Hf   O
     4     8
Direct
  0.0000685807419122  0.0000761413584619  0.0001521558228267
  0.5000657867134523  0.4669180712851677  1.0001552202515719
  0.9341522372865440  0.4669180712851677  0.5001552312515692
  0.4341493982580910  0.0000761413584619  0.5001521558228267
  0.1972605945766459  0.2710714035360298  0.2502512102915169
  0.6972618171430978  0.1959178962756018  0.2502266921314827
  0.2369573854233538  0.2710714035360298  0.7502511862915151
  0.7369562078569021  0.1959178962756018  0.7502266921314829
  0.3323994221352201  0.8014042826095857  0.1432321541747517
  0.8324080234189397  0.6655811689351393  0.1432355643278388
  0.1018185798647814  0.8014042826095857  0.6432321661747529
  0.6018090055810559  0.6655811689351393  0.6432355643278390