PO3 vo4 O8                              
   1.00000000000000     
    10.3748206411168784   -0.0580741176853312    0.0934576404305505
    -0.0552354340269086   10.0855487546875562   -0.0956687675543066
     0.0447947818747522   -0.0478547755385973    5.0620002959986197
   Hf   O 
    16    31
Direct
  0.0021801267106185 -0.0009788758234787  0.0000887091485906
 -0.0017547044461798  0.4997386418499900 -0.0016025357516440
  0.4978297270530286  0.0060427546176079 -0.0004978018794883
  0.4905214232918069  0.4911445049114618 -0.0025482375073511
  0.2485305351538196  0.2321083909694348  0.0061806581959060
  0.2484542475991590  0.7345624286937175 -0.0158002746339968
  0.7499224110450364  0.2218976841594209  0.0102938176228720
  0.7580934024760612  0.7419004783551111  0.0101195523247386
  0.4697596797450075  0.2399034355860699  0.5086004237075670
  0.4610404215013398  0.7447615392170753  0.4568828776276844
  0.9708343311475336  0.2260611449242330  0.5125858385379324
  0.9674951736049371  0.7291643719231211  0.5024041461255921
  0.2170102972554152 -0.0008331478412640  0.4927995343445301
  0.2186720577596786  0.4967333711135383  0.4905245772524520
  0.7171821030816525 -0.0032806000480126  0.5043493843192196
  0.7459006666905371  0.4651103600264094  0.4503248477724250
  0.3678921798042222  0.1024866410027325  0.7494717064144578
  0.3894871258475818  0.6136597128919945  0.7387390844263831
  0.8661683845942378  0.0895409308298910  0.7568319732541051
  0.8555733832210979  0.5920721062494262  0.7455818856998908
  0.1183004038094896  0.1359805997530399  0.7480228327410476
  0.1172843002823976  0.6317873404780177  0.7407138301352373
  0.6156247825590114  0.1366134937009180  0.7520841606332828
  0.3515764288013494  0.1039936174418060  0.2547511304558831
  0.3440507404847141  0.5996114299367085  0.2331211349702033
  0.8532192778998881  0.0968826667127496  0.2570525016591096
  0.8522867411293383  0.6029631534326780  0.2421660751079696
  0.1003543980099121  0.1367353707814581  0.2467856548187982
  0.0987330481261457  0.6365928512322747  0.2407243378912998
  0.6004203066764490  0.1354373978325463  0.2594987190235176
  0.5988577688588582  0.6378209882954630  0.2021274270950354
  0.3150609810191891  0.3498030976339466  0.6831749956056664
  0.2970627126118283  0.8334086092723334  0.6257404464980483
  0.8090877855657442  0.3229272743198160  0.6768232974420541
  0.7942245188148911  0.8239961421062900  0.6438174759188541
  0.0554323257973735  0.3951088606658112  0.6575695151732860
  0.0484336096746207  0.8995186937959375  0.6402806405280451
  0.5678506488102205  0.4222642599723515  0.6356977264365641
  0.5534667990553972  0.8907667614868424  0.6576505206371678
  0.4063505756779338  0.3387098646954674  0.1764164289110228
  0.4077350600191686  0.8412771237065376  0.1326322847092208
  0.8951050180175650  0.3496881562435207  0.2019591195152680
  0.9142926283689453  0.8348555524126325  0.1526772704742255
  0.1552383423045949  0.3957289412675455  0.1571790043365379
  0.1652784430426849  0.9023320003472951  0.1341198654235510
  0.6542603343386005  0.3890789595822059  0.1296107742955921
  0.6616845561071046  0.9028337572852889  0.1502346685615229
 
  0.00000000E+00  0.00000000E+00  0.00000000E+00
  0.00000000E+00  0.00000000E+00  0.00000000E+00
  0.00000000E+00  0.00000000E+00  0.00000000E+00
  0.00000000E+00  0.00000000E+00  0.00000000E+00
  0.00000000E+00  0.00000000E+00  0.00000000E+00
  0.00000000E+00  0.00000000E+00  0.00000000E+00
  0.00000000E+00  0.00000000E+00  0.00000000E+00
  0.00000000E+00  0.00000000E+00  0.00000000E+00
  0.00000000E+00  0.00000000E+00  0.00000000E+00
  0.00000000E+00  0.00000000E+00  0.00000000E+00
  0.00000000E+00  0.00000000E+00  0.00000000E+00
  0.00000000E+00  0.00000000E+00  0.00000000E+00
  0.00000000E+00  0.00000000E+00  0.00000000E+00
  0.00000000E+00  0.00000000E+00  0.00000000E+00
  0.00000000E+00  0.00000000E+00  0.00000000E+00
  0.00000000E+00  0.00000000E+00  0.00000000E+00
  0.00000000E+00  0.00000000E+00  0.00000000E+00
  0.00000000E+00  0.00000000E+00  0.00000000E+00
  0.00000000E+00  0.00000000E+00  0.00000000E+00
  0.00000000E+00  0.00000000E+00  0.00000000E+00
  0.00000000E+00  0.00000000E+00  0.00000000E+00
  0.00000000E+00  0.00000000E+00  0.00000000E+00
  0.00000000E+00  0.00000000E+00  0.00000000E+00
  0.00000000E+00  0.00000000E+00  0.00000000E+00
  0.00000000E+00  0.00000000E+00  0.00000000E+00
  0.00000000E+00  0.00000000E+00  0.00000000E+00
  0.00000000E+00  0.00000000E+00  0.00000000E+00
  0.00000000E+00  0.00000000E+00  0.00000000E+00
  0.00000000E+00  0.00000000E+00  0.00000000E+00
  0.00000000E+00  0.00000000E+00  0.00000000E+00
  0.00000000E+00  0.00000000E+00  0.00000000E+00
  0.00000000E+00  0.00000000E+00  0.00000000E+00
  0.00000000E+00  0.00000000E+00  0.00000000E+00
  0.00000000E+00  0.00000000E+00  0.00000000E+00
  0.00000000E+00  0.00000000E+00  0.00000000E+00
  0.00000000E+00  0.00000000E+00  0.00000000E+00
  0.00000000E+00  0.00000000E+00  0.00000000E+00
  0.00000000E+00  0.00000000E+00  0.00000000E+00
  0.00000000E+00  0.00000000E+00  0.00000000E+00
  0.00000000E+00  0.00000000E+00  0.00000000E+00
  0.00000000E+00  0.00000000E+00  0.00000000E+00
  0.00000000E+00  0.00000000E+00  0.00000000E+00
  0.00000000E+00  0.00000000E+00  0.00000000E+00
  0.00000000E+00  0.00000000E+00  0.00000000E+00
  0.00000000E+00  0.00000000E+00  0.00000000E+00
  0.00000000E+00  0.00000000E+00  0.00000000E+00
  0.00000000E+00  0.00000000E+00  0.00000000E+00
