&control
  calculation ='scf'
  restart_mode ='from_scratch',
  prefix       ='ZnO',
  outdir='./temp'
  pseudo_dir='./GBRV_PBEsol'
  disk_io='low'
  etot_conv_thr=1.D-7,
  forc_conv_thr=1.D-6,
  verbosity    ='high',
!  tprnfor=.t.
!  tstress=.t.
  nstep=200
!  tefield = .true.
!  dipfield = .true.

 /
&system
  nosym = .true.,
  ibrav= 0,
  nat=  72,
  ntyp= 3,
  tot_charge = 0.0
  ecutwfc =  60,
  ecutrho = 500,
  occupations='smearing', smearing='mv', degauss=0.001,
!  eamp = 0.0
!  edir = 3
!  emaxpos = 0.1
!  eopreg = 0.05

!  input_dft='hse', nqx1=2, nqx2=2, nqx3=1,
!  x_gamma_extrapolation = .true.
!  vdw_corr = DFT-D3
/

&electrons
    mixing_mode = 'plain'
    mixing_beta = 0.5,
    conv_thr =  1.0d-8
!   Startingpot = 'file'
!   Startingwfc = 'file'
/

&IONS
  upscale           = 100.D0,
/

&CELL
  cell_dynamics     = 'bfgs'
  press_conv_thr    = 0.5d0
  cell_dofree = 'all'
/

ATOMIC_SPECIES
Zn 65.38   zn_pbesol_v1.uspp.F.UPF
O  15.999  o_pbesol_v1.2.uspp.F.UPF
Mg 24.305   mg_pbesol_v1.4.uspp.F.UPF

K_POINTS {automatic}
4 4 4 0 0 0 

CELL_PARAMETERS (angstrom)
   9.724698783   0.000056463   0.000169329
  -4.862285454   8.421506504  -0.000214622
   0.000182595  -0.000161180  10.462923540975

ATOMIC_POSITIONS (crystal)
Zn       0.222899100   0.112497273   0.193181023
Zn       0.554892511   0.110130265   0.192828586
Zn       0.889456172   0.112485182   0.191670935
Zn       0.222195286   0.444381584   0.192540265
Zn       0.555464126   0.444326410   0.193832842
Zn       0.889098654   0.444446839   0.193648116
Zn       0.223931827   0.777484262   0.192917833
Zn       0.553541434   0.777467768   0.193050299
Zn       0.888620224   0.776813466   0.191048766
Zn       0.220774925   0.109844018   0.693662004
Zn       0.555859412   0.112926301   0.693601472
Zn       0.556171782   0.444290557   0.694231927
Zn       0.888056606   0.444232850   0.694330781
Zn       0.220330510   0.778276555   0.693083814
Zn       0.559225062   0.778294587   0.693428824
Zn       0.110615236   0.222756325   0.442974512
Zn       0.444816051   0.222516301   0.444147023
Zn       0.777779698   0.222276462   0.443243256
Zn       0.111110037   0.555320484   0.443714782
Zn       0.444460931   0.555486195   0.443638479
Zn       0.778133877   0.556091429   0.442936566
Zn       0.110056462   0.887964278   0.441700142
Zn       0.778471255   0.888815190   0.440953679
Zn       0.111495073   0.221996266   0.942090640
Zn       0.444269965   0.222901360   0.943927388
Zn       0.777668592   0.223215515   0.943297161
Zn       0.111255735   0.556035536   0.942945265
Zn       0.444894718   0.555880374   0.943411718
Zn       0.777972912   0.555603002   0.943607499
Zn       0.443849578   0.887560538   0.942034287
Mg       0.887397728   0.109841572   0.693772563
Mg       0.223743784   0.445183102   0.694403820
Mg       0.888385419   0.777093743   0.692908208
Mg       0.444564030   0.888968786   0.445119202
Mg       0.112984201   0.889050182   0.944522366
Mg       0.775597032   0.887488668   0.944493269
O        0.222165253   0.111125212   0.003742475
O        0.554889299   0.110389445   0.003270032
O        0.888466120   0.110721022   0.001974165
O        0.222108066   0.444163789   0.002711553
O        0.555939765   0.444771036   0.004277747
O        0.889180348   0.444810208   0.004148606
O        0.222867852   0.777618161   0.003694458
O        0.554569685   0.777428079   0.003904326
O        0.889822361   0.778813123   0.001461017
O        0.221595865   0.110597205   0.503356621
O        0.555646145   0.111181207   0.503985607
O        0.888398573   0.110559245   0.504229029
O        0.222420752   0.444584741   0.505044327
O        0.555870505   0.444682558   0.504208483
O        0.888818792   0.444458396   0.504021525
O        0.221970408   0.777967383   0.503330256
O        0.556434772   0.778164786   0.503366525
O        0.888864011   0.778032313   0.503792904
O        0.110897169   0.222500530   0.253516889
O        0.444707252   0.222177214   0.254190816
O        0.777445533   0.222035675   0.253482827
O        0.111350361   0.555383297   0.253904008
O        0.444081395   0.555318249   0.253884109
O        0.777923182   0.555691368   0.253568572
O        0.111298801   0.888755585   0.251735562
O        0.444598420   0.889177047   0.255903638
O        0.777748341   0.888976447   0.251110177
O        0.110208022   0.222525872   0.752371698
O        0.443276605   0.221985082   0.754179349
O        0.777737033   0.222040387   0.753751958
O        0.111287585   0.555457609   0.753376660
O        0.445380811   0.556039526   0.753913189
O        0.777966970   0.555760545   0.753849260
O        0.109659293   0.888346971   0.755289805
O        0.444618411   0.888544854   0.751807555
O        0.779746296   0.889272602   0.755344959

