p21c  M2 vo4 O1                         
   1.00000000000000     
    10.4709339470189793   -0.0747645023133074    0.0278117571044726
    -0.0721230643688331   10.3684056713720594   -0.0075661800774130
    -0.8376380653916168    0.0023838933275938    5.0404022208022763
   Hf   O 
    16    31
Direct
 -0.0020298811185448  0.5031484617615665  0.9965683667955759
 -0.0003086502361594 -0.0002456612843039  0.9941661164997108
  0.5070665767223788  0.5061645829974444 -0.0276594159488923
  0.5036224239050490  0.9938554933997286  0.9910245172556884
  0.2935967587344729  0.0438009509436775  0.4478339294319899
  0.2838706462388061  0.5523309062099651  0.4635049493501024
  0.7957997364846224  0.0367411163690001  0.4412024822164645
  0.7902410509710632  0.5411159155543588  0.4465915096131050
  0.0393287969365697  0.2495121811651016  0.4384203275464002
  0.0385094173730577  0.7539073923833617  0.4468198603748461
  0.5578314657173880  0.2393151122115979  0.4615338615823382
  0.5437352735662310  0.7519724533826651  0.4348576063379240
  0.2366641610530644  0.2846500648997478  0.9799867188032709
  0.2484335512517548  0.7951131757263958  0.0092625180120590
  0.7511357431883038  0.2902864474603565  0.0028669488576153
  0.7516969061634767  0.7888000798606605  0.9942176169221942
  0.4060655344129004  0.8948874420831632  0.2731945285542544
  0.9039696908137113  0.3920749227565147  0.2752546622192377
  0.9052571088661148  0.8915296962911372  0.2726451039643613
  0.1698354539311185  0.3997587249606369  0.2840209456514040
  0.1563652244013303  0.9013992425388865  0.2823806262134010
  0.6413024881782918  0.3990227657972135  0.2720962387207809
  0.6561713907959833  0.8959128488261521  0.2696658960053728
  0.3895578353769460  0.1849802065321679  0.1947823806863420
  0.3846535505420625  0.6454289164616995  0.1760137236474312
  0.8878908014385222  0.1508764359019628  0.1658427401705617
  0.8859970145954416  0.6499546458776210  0.1697516951796638
  0.1364695711548945  0.1402794125468026  0.1658032631120721
  0.1353206942756841  0.6434966797985929  0.1802137970561710
  0.6396986763070099  0.1361495009335515  0.1689827818431515
  0.6371074769600773  0.6415934681585264  0.1624428983365051
  0.3214851597490473  0.4434852663580383  0.8384323913936720
  0.3114507729877420  0.9491731547085124  0.8045334919988754
  0.8108086778827159  0.4429289309240586  0.7980844222187602
  0.8135550607582697  0.9403872036191391  0.7924562266940375
  0.0583699937179626  0.3508169913934117  0.7924804319504031
  0.0641845309349382  0.8484194440816423  0.8025824663462773
  0.5647081730996192  0.3483179223018695  0.7878535368761005
  0.5597998420811141  0.8425435231229372  0.7949979282562638
  0.4817832869810146  0.0920359662223744  0.6462503524951824
  0.4800396784051532  0.5885478907770214  0.6225224919805280
  0.9801493259212946  0.0983287226085794  0.6433677360778337
  0.9760740610656596  0.6006278758393712  0.6491682346029933
  0.2250575023095011  0.1923008816049099  0.6402940327571351
  0.2277385880722990  0.6953090293209844  0.6583719074273529
  0.7343919478763338  0.1878194104058996  0.6541947749051007
  0.7255760631556732  0.6906644902052886  0.6428497760083464
 
  0.00000000E+00  0.00000000E+00  0.00000000E+00
  0.00000000E+00  0.00000000E+00  0.00000000E+00
  0.00000000E+00  0.00000000E+00  0.00000000E+00
  0.00000000E+00  0.00000000E+00  0.00000000E+00
  0.00000000E+00  0.00000000E+00  0.00000000E+00
  0.00000000E+00  0.00000000E+00  0.00000000E+00
  0.00000000E+00  0.00000000E+00  0.00000000E+00
  0.00000000E+00  0.00000000E+00  0.00000000E+00
  0.00000000E+00  0.00000000E+00  0.00000000E+00
  0.00000000E+00  0.00000000E+00  0.00000000E+00
  0.00000000E+00  0.00000000E+00  0.00000000E+00
  0.00000000E+00  0.00000000E+00  0.00000000E+00
  0.00000000E+00  0.00000000E+00  0.00000000E+00
  0.00000000E+00  0.00000000E+00  0.00000000E+00
  0.00000000E+00  0.00000000E+00  0.00000000E+00
  0.00000000E+00  0.00000000E+00  0.00000000E+00
  0.00000000E+00  0.00000000E+00  0.00000000E+00
  0.00000000E+00  0.00000000E+00  0.00000000E+00
  0.00000000E+00  0.00000000E+00  0.00000000E+00
  0.00000000E+00  0.00000000E+00  0.00000000E+00
  0.00000000E+00  0.00000000E+00  0.00000000E+00
  0.00000000E+00  0.00000000E+00  0.00000000E+00
  0.00000000E+00  0.00000000E+00  0.00000000E+00
  0.00000000E+00  0.00000000E+00  0.00000000E+00
  0.00000000E+00  0.00000000E+00  0.00000000E+00
  0.00000000E+00  0.00000000E+00  0.00000000E+00
  0.00000000E+00  0.00000000E+00  0.00000000E+00
  0.00000000E+00  0.00000000E+00  0.00000000E+00
  0.00000000E+00  0.00000000E+00  0.00000000E+00
  0.00000000E+00  0.00000000E+00  0.00000000E+00
  0.00000000E+00  0.00000000E+00  0.00000000E+00
  0.00000000E+00  0.00000000E+00  0.00000000E+00
  0.00000000E+00  0.00000000E+00  0.00000000E+00
  0.00000000E+00  0.00000000E+00  0.00000000E+00
  0.00000000E+00  0.00000000E+00  0.00000000E+00
  0.00000000E+00  0.00000000E+00  0.00000000E+00
  0.00000000E+00  0.00000000E+00  0.00000000E+00
  0.00000000E+00  0.00000000E+00  0.00000000E+00
  0.00000000E+00  0.00000000E+00  0.00000000E+00
  0.00000000E+00  0.00000000E+00  0.00000000E+00
  0.00000000E+00  0.00000000E+00  0.00000000E+00
  0.00000000E+00  0.00000000E+00  0.00000000E+00
  0.00000000E+00  0.00000000E+00  0.00000000E+00
  0.00000000E+00  0.00000000E+00  0.00000000E+00
  0.00000000E+00  0.00000000E+00  0.00000000E+00
  0.00000000E+00  0.00000000E+00  0.00000000E+00
  0.00000000E+00  0.00000000E+00  0.00000000E+00
