&control
  calculation ='relax'
  restart_mode ='from_scratch',
  prefix       ='ZnO',
  outdir='./temp'
  pseudo_dir='./GBRV_PBEsol'
  disk_io='low'
  etot_conv_thr=1.D-7,
  forc_conv_thr=1.D-6,
  verbosity    ='high',
  tprnfor=.t.
  tstress=.t.
  nstep=200
!  tefield = .true.
!  dipfield = .true.

 /
&system
  nosym = .true.,
  ibrav= 0,
  nat=  72,
  ntyp= 3,
  tot_charge = 0.0
  ecutwfc =  60,
  ecutrho = 500,
  occupations='smearing', smearing='mv', degauss=0.001,
!  eamp = 0.0
!  edir = 3
!  emaxpos = 0.1
!  eopreg = 0.05

!  input_dft='hse', nqx1=2, nqx2=2, nqx3=1,
!  x_gamma_extrapolation = .true.
!  vdw_corr = DFT-D3
/

&electrons
    mixing_mode = 'plain'
    mixing_beta = 0.5,
    conv_thr =  1.0d-8
!   Startingpot = 'file'
!   Startingwfc = 'file'
/

&IONS
  upscale           = 100.D0,
/

&CELL
  cell_dynamics     = 'bfgs'
  press_conv_thr    = 0.5d0
  cell_dofree = 'all'
/

ATOMIC_SPECIES
Zn 65.38   zn_pbesol_v1.uspp.F.UPF
O  15.999  o_pbesol_v1.2.uspp.F.UPF
Mg 24.305   mg_pbesol_v1.4.uspp.F.UPF

K_POINTS {automatic}
4 4 4 0 0 0 

CELL_PARAMETERS (angstrom)
   9.760484460  -0.006522928   0.006380063
  -4.885876579   8.462586866  -0.002526486
   0.006803180   0.000805560  10.44144393502

ATOMIC_POSITIONS (crystal)
Zn       0.219774305   0.110267233   0.196114482
Zn       0.554082681   0.443767892   0.193515848
Zn       0.891448326   0.444505544   0.193282457
Zn       0.222895888   0.110934428   0.695998481
Zn       0.556388102   0.111231751   0.693195519
Zn       0.887392475   0.111694596   0.691450998
Zn       0.222650784   0.446162497   0.693067115
Zn       0.888422723   0.444864898   0.693781748
Zn       0.554232471   0.777732601   0.693724129
Zn       0.887900339   0.775456908   0.691461586
Zn       0.443811207   0.223840347   0.445122175
Zn       0.778617383   0.223319835   0.442730389
Zn       0.444258623   0.554408774   0.443787685
Zn       0.776450201   0.554008866   0.442228677
Zn       0.441466349   0.887148232   0.442642497
Zn       0.109804702   0.221951475   0.944021772
Zn       0.443235760   0.219712968   0.945247194
Zn       0.443171013   0.555998669   0.944930711
Zn       0.109111239   0.887687990   0.943904502
Zn       0.445649024   0.890211219   0.945541366
Mg       0.554384602   0.112463857   0.197235708
Mg       0.890814416   0.110770970   0.195664347
Mg       0.222908871   0.441582194   0.195190367
Mg       0.222442513   0.779485934   0.193298546
Mg       0.556281182   0.778128686   0.195756614
Mg       0.890004586   0.779670409   0.195913246
Mg       0.555803331   0.444598515   0.695720102
Mg       0.224177575   0.778779331   0.694651413
Mg       0.113571796   0.222967846   0.447335124
Mg       0.111357261   0.556251217   0.443768189
Mg       0.113729178   0.890239074   0.445972627
Mg       0.775421193   0.887803181   0.445422245
Mg       0.777948171   0.222024599   0.945242212
Mg       0.111857615   0.554239811   0.943409234
Mg       0.780109746   0.556512526   0.946432061
Mg       0.779578463   0.889588057   0.941986528
O        0.220564550   0.110098331   0.003134121
O        0.556353773   0.111735305   0.005656212
O        0.887602008   0.109998353   0.003822257
O        0.221493579   0.443575616   0.004093096
O        0.555661017   0.444244164   0.000567078
O        0.890106616   0.444269036   0.000902296
O        0.221438134   0.776619659   0.001392081
O        0.557445080   0.778765084   0.003746115
O        0.887708584   0.777797381   0.004499739
O        0.222291451   0.110905641   0.504125767
O        0.555300710   0.110971157   0.500567110
O        0.889264265   0.110966686   0.499818748
O        0.221609367   0.444914629   0.500867581
O        0.555953360   0.445123058   0.504650096
O        0.888878816   0.444770472   0.501788101
O        0.220738676   0.776720314   0.503531234
O        0.553564605   0.777066882   0.501427256
O        0.889103831   0.777903705   0.499128412
O        0.110815481   0.222119658   0.256118990
O        0.442965568   0.222793456   0.253299178
O        0.778158152   0.221738055   0.250234498
O        0.114340099   0.556858309   0.251838982
O        0.444857895   0.556049219   0.251958046
O        0.778232758   0.555326910   0.249710759
O        0.111241071   0.888171145   0.254803372
O        0.444318251   0.889200069   0.250817072
O        0.777822286   0.889108795   0.253636358
O        0.110590310   0.222756490   0.751158685
O        0.445303283   0.222229421   0.753025053
O        0.777871916   0.222627217   0.753604608
O        0.111569417   0.556716506   0.752016298
O        0.444422723   0.555781697   0.752606215
O        0.777366709   0.555465474   0.754736916
O        0.110380926   0.887768058   0.751168216
O        0.445495523   0.890048025   0.753188160
O        0.778015115   0.888783093   0.750213400

