&control
  calculation ='nscf'
  restart_mode ='from_scratch',
  prefix       ='ZnO',
  outdir='./temp'
  pseudo_dir='./GBRV_PBEsol'
  disk_io='low'
  etot_conv_thr=1.D-7,
  forc_conv_thr=1.D-6,
  verbosity    ='high',
!  tprnfor=.t.
!  tstress=.t.
  nstep=200
nppstr=8
gdir = 3
lberry=.true.
!  tefield = .true.
!  dipfield = .true.

 /
&system
  nosym = .true.,
  ibrav= 0,
  nat=  72,
  ntyp= 3,
  tot_charge = 0.0
  ecutwfc =  60,
  ecutrho = 500,
!  occupations='smearing', smearing='mv', degauss=0.001,
!  eamp = 0.0
!  edir = 3
!  emaxpos = 0.1
!  eopreg = 0.05

!  input_dft='hse', nqx1=2, nqx2=2, nqx3=1,
!  x_gamma_extrapolation = .true.
!  vdw_corr = DFT-D3
/

&electrons
    mixing_mode = 'plain'
    mixing_beta = 0.5,
    conv_thr =  1.0d-8
!   Startingpot = 'file'
!   Startingwfc = 'file'
/

&IONS
  upscale           = 100.D0,
/

&CELL
  cell_dynamics     = 'bfgs'
  press_conv_thr    = 0.5d0
  cell_dofree = 'all'
/

ATOMIC_SPECIES
Zn 65.38   zn_pbesol_v1.uspp.F.UPF
O  15.999  o_pbesol_v1.2.uspp.F.UPF
Mg 24.305   mg_pbesol_v1.4.uspp.F.UPF

K_POINTS {automatic}
4 4 8 0 0 0 

CELL_PARAMETERS (angstrom)
   9.724698783   0.000056463   0.000169329
  -4.862285454   8.421506504  -0.000214622
   0.000182595  -0.000161180  10.30676050305

ATOMIC_POSITIONS (crystal)
Zn       0.222931389   0.112661466   0.194333503
Zn       0.554831293   0.110000449   0.193842892
Zn       0.889562623   0.112656141   0.192496659
Zn       0.222174941   0.444339801   0.193272601
Zn       0.555485353   0.444340028   0.194884600
Zn       0.889099839   0.444448839   0.194764498
Zn       0.224128074   0.777462939   0.194050403
Zn       0.553332041   0.777451392   0.194254472
Zn       0.888555171   0.776654488   0.191836356
Zn       0.220578428   0.109700355   0.694553336
Zn       0.555971835   0.113082870   0.694613461
Zn       0.556129765   0.444309851   0.695129809
Zn       0.888136374   0.444233435   0.695155982
Zn       0.220046922   0.778190179   0.694060010
Zn       0.559536464   0.778309209   0.694343599
Zn       0.110551319   0.222800800   0.444254801
Zn       0.444781485   0.222436275   0.445153683
Zn       0.777746500   0.222143164   0.444281978
Zn       0.111234469   0.555342686   0.444787450
Zn       0.444386897   0.555510136   0.444701715
Zn       0.778192911   0.556218316   0.444124548
Zn       0.109993207   0.887908250   0.442456227
Zn       0.778549362   0.888866246   0.441707084
Zn       0.111473941   0.221796040   0.942904424
Zn       0.444225468   0.222847230   0.944881253
Zn       0.777586975   0.223221572   0.944265313
Zn       0.111194965   0.556160791   0.943894944
Zn       0.445069070   0.555993029   0.944367523
Zn       0.777994586   0.555607748   0.944432867
Zn       0.443860018   0.887563906   0.942484910
Mg       0.887404534   0.109754435   0.694869299
Mg       0.223696139   0.445136270   0.695513438
Mg       0.888431372   0.777271275   0.694118234
Mg       0.444566606   0.888971395   0.446526680
Mg       0.113089938   0.889137094   0.945743174
Mg       0.775521144   0.887428335   0.945802404
O        0.222182650   0.111151017   0.002847206
O        0.554787450   0.110234982   0.002215540
O        0.888454382   0.110721104   0.000707502
O        0.222087044   0.444129415   0.001366289
O        0.555987529   0.444772106   0.003285415
O        0.889164883   0.444822656   0.003216085
O        0.223026170   0.777705690   0.002746489
O        0.554452743   0.777483577   0.003022913
O        0.889881636   0.778829739   0.000150911
O        0.221527564   0.110482616   0.502236930
O        0.555658699   0.111209311   0.502965173
O        0.888300860   0.110416939   0.503593690
O        0.222453028   0.444613781   0.504451199
O        0.555839916   0.444667690   0.503100300
O        0.888835146   0.444433014   0.502865812
O        0.221893662   0.778007407   0.502262233
O        0.556589621   0.778221650   0.502256486
O        0.888919848   0.778179402   0.503212094
O        0.110855508   0.222577100   0.252700475
O        0.444760346   0.222177922   0.253175443
O        0.777421797   0.221980047   0.252470633
O        0.111397647   0.555323343   0.252925673
O        0.443980131   0.555237981   0.252893242
O        0.777939142   0.555728505   0.252671764
O        0.111261809   0.888714970   0.250384246
O        0.444622609   0.889236947   0.255579851
O        0.777809860   0.889017355   0.249723841
O        0.110183513   0.222516127   0.751186045
O        0.443154748   0.221960978   0.753116337
O        0.777821410   0.222059639   0.752689774
O        0.111285594   0.555426129   0.752291477
O        0.445372761   0.556069233   0.752829577
O        0.777990180   0.555781569   0.752667260
O        0.109626337   0.888354165   0.754788327
O        0.444602098   0.888463182   0.750203048
O        0.779820261   0.889336275   0.754936593

