&control
  calculation ='nscf'
  restart_mode ='from_scratch',
  prefix       ='ZnO',
  outdir='./temp'
  pseudo_dir='./GBRV_PBEsol'
  disk_io='low'
  etot_conv_thr=1.D-7,
  forc_conv_thr=1.D-6,
  verbosity    ='high',
!  tprnfor=.t.
!  tstress=.t.
  nstep=200
nppstr=8
gdir = 3
lberry=.true.
!  tefield = .true.
!  dipfield = .true.

 /
&system
  nosym = .true.,
  ibrav= 0,
  nat=  72,
  ntyp= 3,
  tot_charge = 0.0
  ecutwfc =  60,
  ecutrho = 500,
!  occupations='smearing', smearing='mv', degauss=0.001,
!  eamp = 0.0
!  edir = 3
!  emaxpos = 0.1
!  eopreg = 0.05

!  input_dft='hse', nqx1=2, nqx2=2, nqx3=1,
!  x_gamma_extrapolation = .true.
!  vdw_corr = DFT-D3
/

&electrons
    mixing_mode = 'plain'
    mixing_beta = 0.5,
    conv_thr =  1.0d-8
!   Startingpot = 'file'
!   Startingwfc = 'file'
/

&IONS
  upscale           = 100.D0,
/

&CELL
  cell_dynamics     = 'bfgs'
  press_conv_thr    = 0.5d0
  cell_dofree = 'all'
/

ATOMIC_SPECIES
Zn 65.38   zn_pbesol_v1.uspp.F.UPF
O  15.999  o_pbesol_v1.2.uspp.F.UPF
Mg 24.305   mg_pbesol_v1.4.uspp.F.UPF

K_POINTS {automatic}
4 4 8 0 0 0 

CELL_PARAMETERS (angstrom)
   9.727221948   0.004474116  -0.000151625
  -4.859720513   8.425856334   0.001991961
  -0.000166011   0.002370583  10.29806174727

ATOMIC_POSITIONS (crystal)
Zn       0.221708597   0.112078846   0.194785112
Zn       0.223561277   0.109469198   0.694465387
Zn       0.222716754   0.444344283   0.193596810
Zn       0.223247409   0.445737361   0.693549596
Zn       0.223120282   0.778495000   0.195350054
Zn       0.222828115   0.777845773   0.695494776
Zn       0.554271227   0.111043399   0.194798096
Zn       0.555721927   0.110283013   0.694737176
Zn       0.555428762   0.445826568   0.192122940
Mg       0.556088046   0.442191993   0.695186855
Mg       0.556619938   0.779960294   0.194817492
Zn       0.555620367   0.777292673   0.692564471
Zn       0.890804384   0.111425461   0.193912343
Zn       0.886285548   0.110361666   0.694371069
Mg       0.889852702   0.446653779   0.196499475
Zn       0.888360405   0.443871360   0.692384050
Zn       0.888840226   0.778757809   0.193547284
Mg       0.890237764   0.777905648   0.696093064
Mg       0.109723385   0.221574362   0.446403439
Zn       0.110215151   0.221679319   0.943010505
Zn       0.112953065   0.555685614   0.444890949
Zn       0.108662330   0.554261620   0.945005333
Zn       0.110847704   0.888522921   0.444429906
Zn       0.112408070   0.889380885   0.945007416
Zn       0.444865086   0.223211596   0.444505172
Zn       0.443811866   0.220483249   0.945226103
Mg       0.444158101   0.554749032   0.443495673
Mg       0.443544071   0.556654486   0.943104303
Zn       0.444281059   0.889942914   0.444842702
Zn       0.444942698   0.888778115   0.944973656
Zn       0.776421662   0.220348457   0.442668965
Mg       0.777830709   0.222698185   0.945066749
Zn       0.776013898   0.556309434   0.443841736
Zn       0.779139357   0.553979110   0.943553691
Zn       0.778781228   0.889429412   0.444393254
Zn       0.776273161   0.889199862   0.944129399
O        0.221717159   0.111362139   0.003107709
O        0.222092251   0.111015222   0.502288425
O        0.221903635   0.443969491   0.001567368
O        0.223032401   0.443720413   0.501901565
O        0.222332480   0.777013713   0.003038662
O        0.222178835   0.777665680   0.503457344
O        0.555927016   0.110754766   0.002752829
O        0.555488896   0.111643317   0.502931788
O        0.555012583   0.444855397  -0.000334441
O        0.554842267   0.444705028   0.504237423
O        0.554977764   0.776922856   0.004144011
O        0.555267705   0.777089253   0.500163906
O        0.888719321   0.111224200   0.001964912
O        0.888062251   0.110954303   0.502698000
O        0.888176645   0.443148901   0.005514037
O        0.888521693   0.444179781   0.499853053
O        0.888614677   0.777473591   0.000943417
O        0.889100747   0.777889290   0.504735973
O        0.111477330   0.223177833   0.255092996
O        0.110835814   0.221539985   0.750398692
O        0.111906268   0.556111134   0.252807139
O        0.110341336   0.554817318   0.752682486
O        0.110934611   0.889220199   0.252445820
O        0.111531101   0.888452035   0.753373536
O        0.444597849   0.223849892   0.252363894
O        0.444580600   0.221132838   0.753203003
O        0.445303716   0.557516066   0.251981648
O        0.445652510   0.554845729   0.751848468
O        0.444775714   0.889667167   0.253102524
O        0.445057548   0.888075829   0.752816768
O        0.778143415   0.222928912   0.250454398
O        0.777617677   0.222867606   0.754097787
O        0.777247791   0.556583520   0.252080853
O        0.778076015   0.555453734   0.751578104
O        0.778295087   0.889690902   0.252436074
O        0.777470966   0.888049267   0.752134832

