&control
  calculation ='scf'
  restart_mode ='from_scratch',
  prefix       ='ZnO',
  outdir='./temp'
  pseudo_dir='./GBRV_PBEsol'
  disk_io='low'
  etot_conv_thr=1.D-7,
  forc_conv_thr=1.D-6,
  verbosity    ='high',
  tprnfor=.t.
  tstress=.t.
  nstep=200
!  tefield = .true.
!  dipfield = .true.

 /
&system
  nosym = .true.,
  ibrav= 0,
  nat=  72,
  ntyp= 3,
  tot_charge = 0.0
  ecutwfc =  60,
  ecutrho = 500,
  occupations='smearing', smearing='mv', degauss=0.001,
!  eamp = 0.0
!  edir = 3
!  emaxpos = 0.1
!  eopreg = 0.05

!  input_dft='hse', nqx1=2, nqx2=2, nqx3=1,
!  x_gamma_extrapolation = .true.
!  vdw_corr = DFT-D3
/

&electrons
    mixing_mode = 'plain'
    mixing_beta = 0.5,
    conv_thr =  1.0d-8
!   Startingpot = 'file'
!   Startingwfc = 'file'
/

&IONS
  upscale           = 100.D0,
/

&CELL
  cell_dynamics     = 'bfgs'
  press_conv_thr    = 0.5d0
  cell_dofree = 'all'
/

ATOMIC_SPECIES
Zn 65.38   zn_pbesol_v1.uspp.F.UPF
O  15.999  o_pbesol_v1.2.uspp.F.UPF
Mg 24.305   mg_pbesol_v1.4.uspp.F.UPF

K_POINTS {automatic}
4 4 4 0 0 0 

CELL_PARAMETERS (angstrom)
   9.727221948   0.004474116  -0.000151625
  -4.859720513   8.425856334   0.001991961
  -0.000166011   0.002370583  10.402082573

ATOMIC_POSITIONS (crystal)
Zn       0.221747292   0.112029974   0.255383754  
Zn       0.223513469   0.109535661   0.751432015  
Zn       0.222751445   0.444396907   0.253510472  
Zn       0.223155295   0.445629994   0.753363359  
Zn       0.223104163   0.778511091   0.253220410  
Zn       0.222875629   0.777876589   0.754034399  
Zn       0.554330619   0.111037220   0.253090116  
Zn       0.555622775   0.110235124   0.753893511  
Zn       0.555373743   0.445745507   0.252597356  
Mg       0.556008252   0.442180698   0.752371929  
Mg       0.556571404   0.779870570   0.253769500  
Zn       0.555587485   0.777363461   0.753574362  
Zn       0.890672649   0.111394182   0.251466295  
Zn       0.886452850   0.110418617   0.754431941  
Mg       0.889812064   0.446516775   0.252713835  
Zn       0.888413029   0.443918604   0.752287564  
Zn       0.888880286   0.778790748   0.253124963  
Mg       0.890266091   0.777950399   0.752842306  
Mg       0.109718668   0.221536101   0.503115860  
Zn       0.110198513   0.221649061   0.002306319  
Zn       0.112788100   0.555665395   0.502510277  
Zn       0.108794360   0.554381767   0.003817366  
Zn       0.110929719   0.888560187   0.504110658  
Zn       0.112293962   0.889292204   0.003520475  
Zn       0.444834665   0.223092873   0.503595400  
Zn       0.443872506   0.220551209   0.000682878  
Mg       0.444239533   0.554958838   0.504513714  
Mg       0.443586574   0.556541793   0.004405614  
Zn       0.444344054   0.889920247   0.501219695  
Zn       0.444866663   0.888843798   0.002728846  
Zn       0.776462858   0.220470531   0.503339053  
Mg       0.777776094   0.222622052   0.005697342  
Zn       0.776177382   0.556213430   0.500959712  
Zn       0.779078613   0.554124686   0.001949936  
Zn       0.778624633   0.889425080   0.505050097  
Zn       0.776471798   0.889216124   0.003710406  
O        0.221763967   0.111287248   0.003710406  
O        0.222084251   0.111035132   0.503115860  
O        0.221925018   0.444032985   0.002306319  
O        0.222967841   0.443705611   0.502510277  
O        0.222307026   0.777061809   0.003817366  
O        0.222221464   0.777668058   0.504110658  
O        0.555941204   0.110799165   0.003520475  
O        0.555441578   0.111575905   0.503595400  
O        0.555061518   0.444810734   0.000682878  
O        0.554907740   0.444702870   0.504513714  
O        0.555026326   0.776980134   0.004405614  
O        0.555309848   0.777209006   0.501219695  
O        0.888644060   0.111206778   0.002728846  
O        0.888114366   0.110938035   0.503339053  
O        0.888179064   0.443168969   0.005697342  
O        0.888556395   0.444216479   0.500959712  
O        0.888650523   0.777487301   0.001949936  
O        0.889061955   0.777877371   0.505050097  
O        0.111466304   0.223124268   0.255383754  
O        0.110844053   0.221588174   0.751432015  
O        0.111820814   0.556069346   0.253510472  
O        0.110471944   0.554888186   0.753363359  
O        0.111005839   0.889279598   0.253220410  
O        0.111528116   0.888445368   0.754034399  
O        0.444533725   0.223708265   0.253090116  
O        0.444594806   0.221181067   0.753893511  
O        0.445275097   0.557512106   0.252597356  
O        0.445555574   0.554779008   0.752371929  
O        0.444796823   0.889604153   0.253769500  
O        0.444997529   0.888147993   0.753574362  
O        0.778135876   0.222931086   0.251466295  
O        0.777556805   0.222729417   0.754431941  
O        0.777322549   0.556500938   0.252713835  
O        0.777979115   0.555497736   0.752287564  
O        0.778187524   0.889656285   0.253124963  
O        0.777566130   0.888125923   0.752842306  

