PO2 vo4 O1                              
   1.00000000000000     
    10.3970220343590132    0.1395411349715020    0.0329505465193757
     0.1337537402983203   10.0873856500219237    0.0645961427750401
     0.0158119494675298    0.0326286365371381    5.0508124751787236
   Hf   O 
    16    31
Direct
  0.9939598238404029  0.9951703233035816  0.0034089409396849
  0.0059476771481271  0.4991188142955142  0.0039178826808455
  0.4970746104630422 -0.0022220756242986  0.0080243189857311
  0.5119770342964916  0.5131481119117367 -0.0025399139750407
  0.2452440259519315  0.0010062628842425  0.4491863893736314
  0.2467475563211854  0.5031339283937296  0.4832768338917267
  0.7461600025793874 -0.0034377602724924  0.4651468795880135
  0.7540774285252018  0.5006291824727019  0.4704310508134970
  0.4924870412269686  0.2250683286619987  0.5252250449102560
  0.4668786236233057  0.7506147515181422  0.4788752088244053
  0.9622256662573438  0.2382542316801414  0.4769210541958306
  0.9684512330917738  0.7467953890958573  0.4768955105433435
  0.2162773802630232  0.2361139369476257  0.9535624846006671
  0.2167301028934389  0.7486224281111202 -0.0002080401991500
  0.7161163613458965  0.2544673700370058  0.0137189196017554
  0.7218422275210643  0.7507254144637669  0.0102070399378657
  0.3641402271031062  0.8744900224791206  0.1919390491260331
  0.8747622381847076  0.3702661480835043  0.2027460692292571
  0.8646688583318340  0.8715086792714284  0.2020162662457309
  0.1570651959432203  0.3792945482240152  0.2134583462571611
  0.1147860741336554  0.8749373181595563  0.2727672483587159
  0.6084242296727134  0.3751234181127565  0.2974476890630227
  0.6145828832680519  0.8750735111606905  0.2718185021667767
  0.3552100764736540  0.1420791329194157  0.1995507206031855
  0.3522071550190404  0.6070948801252324  0.1938848248521129
  0.8450872927688898  0.1198923275225779  0.1931179600985888
  0.8539919810062290  0.6214492692205102  0.1978009319947317
  0.0969138643902960  0.1272868191850336  0.2501677922628231
  0.1008412280802967  0.6231890549823960  0.2758148071880845
  0.6030057997682273  0.1200893757901758  0.2532149859352417
  0.6053296890523838  0.6276774630817714  0.2807292029471118
  0.3158539670288418  0.3231357606904121  0.6387780935798487
  0.2973230644066617  0.8222263560112824  0.6617194777306558
  0.7974701230759743  0.3214049208759829  0.6733942985955008
  0.8001743270769481  0.8248785906253817  0.6739548008016185
  0.0578519435649432  0.3308534753242932  0.7626090763667631
  0.0488458301592831  0.8202891032324721  0.8085313887351694
  0.5422797779617831  0.3298746973276815  0.8441532292295910
  0.5524582136777584  0.8256860843665298  0.8012221468429288
  0.4002725823431657  0.0653507750784199  0.6800279442419005
  0.4151042372809615  0.5759273107363454  0.6706993245660628
  0.9037806701012997  0.0709574239588893  0.6716030188311805
  0.9147238438404007  0.5712840217530176  0.6728438434862856
  0.1510270646267896  0.0706251216271303  0.7763146228647989
  0.1626994163573403  0.5799878367564993  0.7982703870387353
  0.6406442314167835  0.0992225224935865  0.7585988742884185
  0.6683601275361674  0.5755202019435471  0.8061801837588011
 
  0.00000000E+00  0.00000000E+00  0.00000000E+00
  0.00000000E+00  0.00000000E+00  0.00000000E+00
  0.00000000E+00  0.00000000E+00  0.00000000E+00
  0.00000000E+00  0.00000000E+00  0.00000000E+00
  0.00000000E+00  0.00000000E+00  0.00000000E+00
  0.00000000E+00  0.00000000E+00  0.00000000E+00
  0.00000000E+00  0.00000000E+00  0.00000000E+00
  0.00000000E+00  0.00000000E+00  0.00000000E+00
  0.00000000E+00  0.00000000E+00  0.00000000E+00
  0.00000000E+00  0.00000000E+00  0.00000000E+00
  0.00000000E+00  0.00000000E+00  0.00000000E+00
  0.00000000E+00  0.00000000E+00  0.00000000E+00
  0.00000000E+00  0.00000000E+00  0.00000000E+00
  0.00000000E+00  0.00000000E+00  0.00000000E+00
  0.00000000E+00  0.00000000E+00  0.00000000E+00
  0.00000000E+00  0.00000000E+00  0.00000000E+00
  0.00000000E+00  0.00000000E+00  0.00000000E+00
  0.00000000E+00  0.00000000E+00  0.00000000E+00
  0.00000000E+00  0.00000000E+00  0.00000000E+00
  0.00000000E+00  0.00000000E+00  0.00000000E+00
  0.00000000E+00  0.00000000E+00  0.00000000E+00
  0.00000000E+00  0.00000000E+00  0.00000000E+00
  0.00000000E+00  0.00000000E+00  0.00000000E+00
  0.00000000E+00  0.00000000E+00  0.00000000E+00
  0.00000000E+00  0.00000000E+00  0.00000000E+00
  0.00000000E+00  0.00000000E+00  0.00000000E+00
  0.00000000E+00  0.00000000E+00  0.00000000E+00
  0.00000000E+00  0.00000000E+00  0.00000000E+00
  0.00000000E+00  0.00000000E+00  0.00000000E+00
  0.00000000E+00  0.00000000E+00  0.00000000E+00
  0.00000000E+00  0.00000000E+00  0.00000000E+00
  0.00000000E+00  0.00000000E+00  0.00000000E+00
  0.00000000E+00  0.00000000E+00  0.00000000E+00
  0.00000000E+00  0.00000000E+00  0.00000000E+00
  0.00000000E+00  0.00000000E+00  0.00000000E+00
  0.00000000E+00  0.00000000E+00  0.00000000E+00
  0.00000000E+00  0.00000000E+00  0.00000000E+00
  0.00000000E+00  0.00000000E+00  0.00000000E+00
  0.00000000E+00  0.00000000E+00  0.00000000E+00
  0.00000000E+00  0.00000000E+00  0.00000000E+00
  0.00000000E+00  0.00000000E+00  0.00000000E+00
  0.00000000E+00  0.00000000E+00  0.00000000E+00
  0.00000000E+00  0.00000000E+00  0.00000000E+00
  0.00000000E+00  0.00000000E+00  0.00000000E+00
  0.00000000E+00  0.00000000E+00  0.00000000E+00
  0.00000000E+00  0.00000000E+00  0.00000000E+00
  0.00000000E+00  0.00000000E+00  0.00000000E+00
