&control
  calculation ='relax'
  restart_mode ='from_scratch',
  prefix       ='ZnO',
  outdir='./temp'
  pseudo_dir='./GBRV_PBEsol'
  disk_io='low'
  etot_conv_thr=1.D-7,
  forc_conv_thr=1.D-6,
  verbosity    ='high',
  tprnfor=.t.
  tstress=.t.
  nstep=200
!  tefield = .true.
!  dipfield = .true.

 /
&system
  nosym = .true.,
  ibrav= 0,
  nat=  72,
  ntyp= 3,
  tot_charge = 0.0
  ecutwfc =  60,
  ecutrho = 500,
  occupations='smearing', smearing='mv', degauss=0.001,
!  eamp = 0.0
!  edir = 3
!  emaxpos = 0.1
!  eopreg = 0.05

!  input_dft='hse', nqx1=2, nqx2=2, nqx3=1,
!  x_gamma_extrapolation = .true.
!  vdw_corr = DFT-D3
/

&electrons
    mixing_mode = 'plain'
    mixing_beta = 0.5,
    conv_thr =  1.0d-8
!   Startingpot = 'file'
!   Startingwfc = 'file'
/

&IONS
  upscale           = 100.D0,
/

&CELL
  cell_dynamics     = 'bfgs'
  press_conv_thr    = 0.5d0
  cell_dofree = 'all'
/

ATOMIC_SPECIES
Zn 65.38   zn_pbesol_v1.uspp.F.UPF
O  15.999  o_pbesol_v1.2.uspp.F.UPF
Mg 24.305   mg_pbesol_v1.4.uspp.F.UPF

K_POINTS {automatic}
4 4 4 0 0 0 

CELL_PARAMETERS (angstrom)
   9.749208732   0.003994283  -0.004034189
  -4.871129776   8.444195695   0.004171274
  -0.004305950   0.002658169  10.26008565318

ATOMIC_POSITIONS (crystal)
Zn       0.222447628   0.112051789   0.194582193
Zn       0.223175584   0.110641859   0.695018246
Zn       0.224659111   0.445762304   0.194981803
Zn       0.221510381   0.444629593   0.694229340
Zn       0.222089876   0.777142599   0.192681531
Mg       0.224767872   0.780694846   0.695358632
Zn       0.556548786   0.111143882   0.194542155
Zn       0.555642309   0.111857423   0.694874103
Mg       0.555569907   0.445312507   0.194311408
Mg       0.555591455   0.444053009   0.693834358
Mg       0.553168805   0.776482484   0.195235254
Zn       0.556743003   0.779307105   0.691296975
Mg       0.890244070   0.112730274   0.192451390
Mg       0.890058601   0.110869907   0.693271921
Zn       0.889105774   0.444615311   0.192282781
Mg       0.888955910   0.445891979   0.696823464
Zn       0.886574651   0.777623657   0.194738337
Zn       0.890411729   0.777832034   0.694173842
Zn       0.109602584   0.222487025   0.445074314
Zn       0.111532331   0.221643811   0.944291567
Mg       0.109242082   0.556121257   0.444202435
Zn       0.112699669   0.555185612   0.942891830
Zn       0.112319443   0.888343603   0.443629393
Mg       0.109047305   0.888031779   0.946702941
Zn       0.443612428   0.221423181   0.443413442
Mg       0.444125210   0.221543146   0.945181649
Mg       0.441903960   0.553225780   0.445302325
Zn       0.444633167   0.556477358   0.942263899
Zn       0.442673741   0.889160888   0.444702988
Zn       0.446169089   0.887939168   0.944597364
Mg       0.776800798   0.223888341   0.444430888
Zn       0.777705022   0.220305255   0.942250952
Zn       0.778879413   0.554010095   0.444893844
Zn       0.776656137   0.556671941   0.944302226
Mg       0.779686485   0.889392098   0.443479730
Mg       0.774948018   0.886023387   0.942463130
O        0.222406287   0.110241136   0.003105964
O        0.221475933   0.110820977   0.503060966
O        0.222719109   0.443951601   0.003095560
O        0.220546036   0.444932941   0.502457240
O        0.222509280   0.777814448   0.001072179
O        0.221761647   0.777029261   0.504838074
O        0.556104960   0.110836101   0.002810251
O        0.555004953   0.111149201   0.503024016
O        0.554395377   0.443561722   0.003162358
O        0.555172020   0.444129582   0.502880909
O        0.555501807   0.776642444   0.004673356
O        0.556081066   0.777254720   0.499454916
O        0.888146553   0.108541940   0.001421008
O        0.886791546   0.110783383   0.502341495
O        0.888882328   0.443940788   0.000392507
O        0.889291711   0.443936874   0.505792790
O        0.887553064   0.777872277   0.003113976
O        0.889601170   0.777465902   0.502371198
O        0.111186631   0.222863218   0.253032380
O        0.111640428   0.222373843   0.752647075
O        0.110985481   0.555432734   0.253297159
O        0.111824044   0.557666423   0.751337763
O        0.110439081   0.888460028   0.251623158
O        0.111850023   0.889004988   0.755687326
O        0.445200136   0.222927119   0.251514643
O        0.445176011   0.223127492   0.754664821
O        0.445686426   0.555916395   0.254913683
O        0.444992854   0.556277486   0.750411201
O        0.443547818   0.888874363   0.252924364
O        0.446316166   0.889777575   0.753054334
O        0.778946640   0.222759914   0.253587524
O        0.779309918   0.222633103   0.750532563
O        0.777666567   0.555122070   0.252849059
O        0.776808192   0.555554294   0.752853210
O        0.776444361   0.890550270   0.252219904
O        0.778532043   0.889257101   0.751708419

