&control
  calculation ='scf'
  restart_mode ='from_scratch',
  prefix       ='ZnO',
  outdir='./temp'
  pseudo_dir='./GBRV_PBEsol'
  disk_io='low'
  etot_conv_thr=1.D-7,
  forc_conv_thr=1.D-6,
  verbosity    ='high',
!  tprnfor=.t.
!  tstress=.t.
  nstep=200
!  tefield = .true.
!  dipfield = .true.

 /
&system
  nosym = .true.,
  ibrav= 0,
  nat=  72,
  ntyp= 3,
  tot_charge = 0.0
  ecutwfc =  60,
  ecutrho = 500,
  occupations='smearing', smearing='mv', degauss=0.001,
!  eamp = 0.0
!  edir = 3
!  emaxpos = 0.1
!  eopreg = 0.05

!  input_dft='hse', nqx1=2, nqx2=2, nqx3=1,
!  x_gamma_extrapolation = .true.
!  vdw_corr = DFT-D3
/

&electrons
    mixing_mode = 'plain'
    mixing_beta = 0.5,
    conv_thr =  1.0d-8
!   Startingpot = 'file'
!   Startingwfc = 'file'
/

&IONS
  upscale           = 100.D0,
/

&CELL
  cell_dynamics     = 'bfgs'
  press_conv_thr    = 0.5d0
  cell_dofree = 'all'
/

ATOMIC_SPECIES
Zn 65.38   zn_pbesol_v1.uspp.F.UPF
O  15.999  o_pbesol_v1.2.uspp.F.UPF
Mg 24.305   mg_pbesol_v1.4.uspp.F.UPF

K_POINTS {automatic}
4 4 4 0 0 0 

CELL_PARAMETERS (angstrom)
   9.760484460  -0.006522928   0.006380063
  -4.885876579   8.462586866  -0.002526486
   0.006803180   0.000805560  10.44144393502

ATOMIC_POSITIONS (crystal)
Zn       0.219880620   0.110328601   0.195532826
Zn       0.554167926   0.443789945   0.193256804
Zn       0.891292621   0.444449027   0.192695845
Zn       0.222764895   0.110890437   0.695246109
Zn       0.556335587   0.111205164   0.692796646
Zn       0.887475451   0.111640187   0.690795420
Zn       0.222560513   0.446050490   0.692601083
Zn       0.888520054   0.444862115   0.692994410
Zn       0.554318708   0.777793878   0.693147404
Zn       0.887978799   0.775657558   0.691009565
Zn       0.443849989   0.223724326   0.444502467
Zn       0.778472428   0.223236410   0.442314985
Zn       0.444184888   0.554502742   0.443197230
Zn       0.776519702   0.554099018   0.441853136
Zn       0.441642929   0.887293115   0.442040387
Zn       0.109927335   0.221936158   0.943479484
Zn       0.443206427   0.219821449   0.944556972
Zn       0.443243022   0.555873472   0.944195827
Zn       0.109314238   0.887779818   0.943333997
Zn       0.445490421   0.890122145   0.944746305
Mg       0.554480056   0.112587405   0.196424896
Mg       0.890794562   0.110840568   0.194970899
Mg       0.222908265   0.441574932   0.194392877
Mg       0.222413706   0.779437681   0.192891769
Mg       0.556275747   0.778081450   0.195102969
Mg       0.889932908   0.779507701   0.195020915
Mg       0.555754606   0.444574587   0.694778592
Mg       0.224068303   0.778737843   0.693788720
Mg       0.113595051   0.223067067   0.446576282
Mg       0.111456374   0.556228909   0.443131258
Mg       0.113675232   0.890204962   0.445210763
Mg       0.775361510   0.887756349   0.444679105
Mg       0.777961070   0.222037317   0.944434820
Mg       0.111965780   0.554407665   0.942802420
Mg       0.779937407   0.556380410   0.945566241
Mg       0.779543412   0.889584586   0.941470677
O        0.220654083   0.110126226   0.003893503
O        0.556328256   0.111711053   0.005983908
O        0.887629010   0.110070878   0.004299346
O        0.221583137   0.443640646   0.004488516
O        0.555649868   0.444218722   0.001668318
O        0.890076830   0.444276936   0.001618454
O        0.221521145   0.776704003   0.002203287
O        0.557301870   0.778683591   0.004240855
O        0.887726428   0.777696010   0.004794048
O        0.222264704   0.110910487   0.504714890
O        0.555259089   0.110964688   0.501553141
O        0.889270669   0.110951788   0.500597896
O        0.221657658   0.444905978   0.501798763
O        0.555853750   0.445079120   0.504907985
O        0.888928653   0.444774399   0.502395091
O        0.220826112   0.776800237   0.503877116
O        0.553559491   0.777083921   0.502237488
O        0.889116386   0.777967854   0.500092073
O        0.110830631   0.222132770   0.256498643
O        0.442989455   0.222736932   0.254036844
O        0.778151298   0.221762361   0.251182575
O        0.114214122   0.556701017   0.252400248
O        0.444778341   0.556026347   0.252714135
O        0.778285214   0.555349024   0.250722529
O        0.111129072   0.888183670   0.255206768
O        0.444417683   0.889299354   0.251549446
O        0.777875405   0.889087243   0.254054509
O        0.110577187   0.222690372   0.752033022
O        0.445207484   0.222270101   0.753701388
O        0.777926468   0.222646867   0.753978795
O        0.111546605   0.556714057   0.752611341
O        0.444459025   0.555769737   0.753249348
O        0.777328927   0.555402625   0.755031977
O        0.110448095   0.887828417   0.752011026
O        0.445372056   0.889944235   0.753772437
O        0.777985251   0.888822849   0.750940190

