&control
  calculation ='nscf'
  restart_mode ='from_scratch',
  prefix       ='ZnO',
  outdir='./temp'
  pseudo_dir='./GBRV_PBEsol'
  disk_io='low'
  etot_conv_thr=1.D-7,
  forc_conv_thr=1.D-6,
  verbosity    ='high',
!  tprnfor=.t.
!  tstress=.t.
  nstep=200
nppstr=8
gdir = 3
lberry=.true.
!  tefield = .true.
!  dipfield = .true.

 /
&system
  nosym = .true.,
  ibrav= 0,
  nat=  72,
  ntyp= 3,
  tot_charge = 0.0
  ecutwfc =  60,
  ecutrho = 500,
!  occupations='smearing', smearing='mv', degauss=0.001,
!  eamp = 0.0
!  edir = 3
!  emaxpos = 0.1
!  eopreg = 0.05

!  input_dft='hse', nqx1=2, nqx2=2, nqx3=1,
!  x_gamma_extrapolation = .true.
!  vdw_corr = DFT-D3
/

&electrons
    mixing_mode = 'plain'
    mixing_beta = 0.5,
    conv_thr =  1.0d-8
!   Startingpot = 'file'
!   Startingwfc = 'file'
/

&IONS
  upscale           = 100.D0,
/

&CELL
  cell_dynamics     = 'bfgs'
  press_conv_thr    = 0.5d0
  cell_dofree = 'all'
/

ATOMIC_SPECIES
Zn 65.38   zn_pbesol_v1.uspp.F.UPF
O  15.999  o_pbesol_v1.2.uspp.F.UPF
Mg 24.305   mg_pbesol_v1.4.uspp.F.UPF

K_POINTS {automatic}
4 4 8 0 0 0 

CELL_PARAMETERS (angstrom)
   9.748833799  -0.009047917  -0.000288781
  -4.882236168   8.442786028   0.002521343
  -0.000314651   0.002939158  10.423363323975

ATOMIC_POSITIONS (crystal)
Zn       0.222493977   0.111515857   0.194192071
Zn       0.222423366   0.110788876   0.693718972
Zn       0.223171759   0.443882738   0.193358730
Zn       0.222122720   0.445775339   0.693718265
Zn       0.224567299   0.781381532   0.192929252
Zn       0.220564135   0.775890693   0.692953071
Zn       0.554322218   0.110226529   0.194683210
Zn       0.556105638   0.111734934   0.695056791
Zn       0.555359466   0.444170573   0.192513733
Mg       0.554870052   0.442337593   0.694828529
Mg       0.555323148   0.780385846   0.193633977
Zn       0.555612398   0.776161300   0.691783631
Zn       0.888883787   0.110671130   0.193316980
Mg       0.887125851   0.110023430   0.695693991
Zn       0.887028277   0.443517013   0.193121650
Mg       0.889068781   0.444574921   0.694738088
Mg       0.888862813   0.777987852   0.192576594
Mg       0.886745919   0.776109471   0.693501269
Zn       0.109981769   0.222423653   0.444973425
Zn       0.113386234   0.224208735   0.944029682
Zn       0.110782166   0.555948983   0.442519837
Mg       0.112271588   0.555490880   0.946256090
Mg       0.110975507   0.889006471   0.443436649
Mg       0.113603614   0.891171194   0.942731054
Zn       0.446026756   0.224023006   0.444859348
Zn       0.444921157   0.221886496   0.944944217
Mg       0.444361517   0.553373849   0.442901011
Mg       0.444806450   0.555918359   0.943265914
Mg       0.445034515   0.890196295   0.446470552
Zn       0.444948903   0.888071755   0.942705649
Zn       0.778884674   0.223341595   0.443673253
Zn       0.776516858   0.221873929   0.943734860
Zn       0.776721797   0.554251816   0.443096444
Zn       0.778360759   0.555984029   0.942054249
Zn       0.777949826   0.889052929   0.442523624
Zn       0.776051952   0.887165695   0.942733102
O        0.222590139   0.111806025   0.003844594
O        0.222227522   0.111307641   0.502895505
O        0.223739632   0.445555322   0.003172926
O        0.222205987   0.445226355   0.502828411
O        0.222412460   0.778462365   0.002371888
O        0.221988093   0.778373980   0.502572794
O        0.554886372   0.109824648   0.004118693
O        0.556328740   0.112299009   0.504153089
O        0.555995835   0.445112744   0.001620739
O        0.555471303   0.444776185   0.505142903
O        0.554804550   0.776975110   0.004068230
O        0.554433116   0.776284561   0.500692475
O        0.889104835   0.110928066   0.002012612
O        0.887987965   0.110592347   0.505270600
O        0.889031111   0.444630506   0.002303109
O        0.889411765   0.445044531   0.504397969
O        0.890752914   0.778758979   0.002261523
O        0.889047062   0.777812915   0.502910466
O        0.110903412   0.222236226   0.254057565
O        0.110661343   0.221995556   0.752997497
O        0.111358800   0.556252420   0.251151623
O        0.110302787   0.554886179   0.755943194
O        0.110245971   0.888815830   0.253187759
O        0.109388845   0.887715985   0.752532366
O        0.444801648   0.222831399   0.253863018
O        0.443821574   0.220963052   0.754407107
O        0.445970510   0.557309092   0.252648781
O        0.444771618   0.554371371   0.753118468
O        0.444673353   0.889343302   0.256343400
O        0.444308765   0.887709123   0.751505761
O        0.777764387   0.221737419   0.253211267
O        0.778406650   0.222760071   0.753407466
O        0.777731817   0.555956550   0.252613664
O        0.777278389   0.554618436   0.751591244
O        0.777594219   0.888305639   0.251830244
O        0.777358863   0.887895765   0.752413288

