&control
  calculation ='scf'
  restart_mode ='from_scratch',
  prefix       ='ZnO',
  outdir='./temp'
  pseudo_dir='./GBRV_PBEsol'
  disk_io='low'
  etot_conv_thr=1.D-7,
  forc_conv_thr=1.D-6,
  verbosity    ='high',
!  tprnfor=.t.
!  tstress=.t.
  nstep=200
!  tefield = .true.
!  dipfield = .true.

 /
&system
  nosym = .true.,
  ibrav= 0,
  nat=  72,
  ntyp= 3,
  tot_charge = 0.0
  ecutwfc =  60,
  ecutrho = 500,
  occupations='smearing', smearing='mv', degauss=0.001,
!  eamp = 0.0
!  edir = 3
!  emaxpos = 0.1
!  eopreg = 0.05

!  input_dft='hse', nqx1=2, nqx2=2, nqx3=1,
!  x_gamma_extrapolation = .true.
!  vdw_corr = DFT-D3
/

&electrons
    mixing_mode = 'plain'
    mixing_beta = 0.5,
    conv_thr =  1.0d-8
!   Startingpot = 'file'
!   Startingwfc = 'file'
/

&IONS
  upscale           = 100.D0,
/

&CELL
  cell_dynamics     = 'bfgs'
  press_conv_thr    = 0.5d0
  cell_dofree = 'all'
/

ATOMIC_SPECIES
Zn 65.38   zn_pbesol_v1.uspp.F.UPF
O  15.999  o_pbesol_v1.2.uspp.F.UPF
Mg 24.305   mg_pbesol_v1.4.uspp.F.UPF

K_POINTS {automatic}
4 4 4 0 0 0 

CELL_PARAMETERS (angstrom)
   9.727221948   0.004474116  -0.000151625
  -4.859720513   8.425856334   0.001991961
  -0.000166011   0.002370583  10.50610339873

ATOMIC_POSITIONS (crystal)
Zn       0.221779982   0.111992583   0.193211420
Zn       0.223478139   0.109583252   0.693419381
Zn       0.222772904   0.444427350   0.192292637
Zn       0.223061728   0.445540564   0.692027090
Zn       0.223082442   0.778538669   0.194212019
Zn       0.222922434   0.777901875   0.694086700
Zn       0.554364922   0.111030791   0.193624457
Zn       0.555540641   0.110183320   0.693300380
Zn       0.555311396   0.445671601   0.191274931
Mg       0.555927869   0.442161104   0.693437978
Mg       0.556520659   0.779787261   0.193028157
Zn       0.555543204   0.777425800   0.691785970
Zn       0.890574640   0.111364613   0.192691144
Zn       0.886583296   0.110465052   0.692886937
Mg       0.889777223   0.446399059   0.194615109
Zn       0.888454965   0.443941148   0.691700090
Zn       0.888917777   0.778822333   0.192743001
Mg       0.890295849   0.777992178   0.694465822
Mg       0.109711713   0.221497958   0.444731741
Zn       0.110191988   0.221629003   0.942244902
Zn       0.112650696   0.555659694   0.443594234
Zn       0.108902870   0.554495730   0.943635330
Zn       0.110993575   0.888584300   0.443227757
Zn       0.112200764   0.889218274   0.943587405
Zn       0.444820415   0.222985658   0.443212388
Zn       0.443920491   0.220594988   0.943904439
Mg       0.444326455   0.555145495   0.442313046
Mg       0.443628584   0.556450014   0.941737710
Zn       0.444398599   0.889912060   0.443448994
Zn       0.444800263   0.888897738   0.943746984
Zn       0.776495819   0.220574981   0.441840224
Mg       0.777736777   0.222564175   0.943396011
Zn       0.776322405   0.556130870   0.442303945
Zn       0.779046507   0.554253781   0.942238700
Zn       0.778502988   0.889428423   0.443034979
Zn       0.776643735   0.889239005   0.942788476
O        0.221803545   0.111227293   0.004276457
O        0.222088150   0.111042769   0.503874903
O        0.221937474   0.444092149   0.002981054
O        0.222917184   0.443707379   0.503084523
O        0.222288039   0.777108956   0.004532451
O        0.222258956   0.777675266   0.504722288
O        0.555945295   0.110829571   0.004230993
O        0.555409551   0.111520617   0.504213612
O        0.555113966   0.444766767   0.001577636
O        0.554974583   0.444692565   0.504796072
O        0.555073613   0.777039421   0.004679712
O        0.555357690   0.777327889   0.502146374
O        0.888598425   0.111194978   0.003432875
O        0.888146105   0.110920679   0.503942970
O        0.888194774   0.443205100   0.005909534
O        0.888589007   0.444249358   0.501925681
O        0.888682066   0.777504591   0.002836552
O        0.889026726   0.777861989   0.505368511
O        0.111459117   0.223077478   0.255683090
O        0.110848292   0.221624528   0.752341523
O        0.111764752   0.556044148   0.254161866
O        0.110571206   0.554946674   0.753992182
O        0.111059467   0.889337426   0.253933543
O        0.111539032   0.888441048   0.754657677
O        0.444474434   0.223592945   0.253759621
O        0.444605578   0.221204712   0.754535130
O        0.445233643   0.557485397   0.253149863
O        0.445457795   0.554729666   0.752846971
O        0.444801172   0.889554332   0.254395455
O        0.444944407   0.888208115   0.754269691
O        0.778120925   0.222913157   0.252368409
O        0.777503442   0.222609917   0.754767479
O        0.777372103   0.556435041   0.253301624
O        0.777901710   0.555519576   0.752942911
O        0.778104523   0.889627514   0.253762369
O        0.777628541   0.888190289   0.753497913

