&control
  calculation ='scf'
  restart_mode ='from_scratch',
  prefix       ='MgO',
  outdir='./temp'
  pseudo_dir='./GBRV_PBEsol'
  disk_io='low'
  etot_conv_thr=1.D-7,
  forc_conv_thr=1.D-6,
  verbosity    ='high',
  tprnfor=.t.
  tstress=.t.
  nstep=200
!  tefield = .true.
!  dipfield = .true.

 /
&system
  nosym = .true.,
  ibrav= 0,
  nat=  4,
  ntyp= 2,
  tot_charge = 0.0
  ecutwfc =  50,
  ecutrho = 250,
!  occupations='smearing', smearing='mv', degauss=0.001,
!  eamp = 0.0
!  edir = 3
!  emaxpos = 0.1
!  eopreg = 0.05

!  input_dft='hse', nqx1=2, nqx2=2, nqx3=1,
!  x_gamma_extrapolation = .true.
!  vdw_corr = DFT-D3
!   noncolin = .false., lspinorb = .false.,
!   nspin = 2,
!   starting_magnetization(1) = 0.0, starting_magnetization(2) = 0.0,
!!   lda_plus_v = .true., U_projection_type = 'ortho-atomic', ehub_nn_distance = 3.0,
!   lda_plus_v = .true., U_projection_type = 'atomic', ehub_nn_distance = 3.0,
!   lacbn0 = .true., acbn0_type = 2, ehub_conv_thr = 1.0D-06, ehub_mixing = 0.5,
!   ehub_l_choice(1,1) = 1, ehub_l_choice(1,2) = 1,
!   remove_ehub_u(1,1) = 0,
!   ehub_l_choice(2,1) = 1, ehub_l_choice(2,2) = 1,
!   remove_ehub_u(2,1) = 0,
/

&electrons
    mixing_mode = 'plain'
    mixing_beta = 0.5,
    conv_thr =  1.0d-6
!   Startingpot = 'file'
!   Startingwfc = 'file'
/

&IONS
  upscale           = 100.D0,
/

&CELL
  cell_dynamics     = 'bfgs'
  press_conv_thr    = 0.5d0
  cell_dofree = 'all'
/

ATOMIC_SPECIES
Mg 24.305   mg_pbesol_v1.4.uspp.F.UPF
O  15.999  o_pbesol_v1.2.uspp.F.UPF

K_POINTS {automatic}
8 8 8 0 0 0 

CELL_PARAMETERS (angstrom)
   3.492005615  -0.000000  -0.000000
  -1.746003339   3.024166869   0.000000
  -0.0000000   0.000000   4.194949931

ATOMIC_POSITIONS (crystal)
O        0.666666   0.333333  -0.000000
O        0.333333   0.666666   0.500000
Mg       0.666666   0.333333   0.500000
Mg       0.333333   0.666666  -0.000000

