Pnm21  P1 vo4 O21                       
   1.00000000000000     
    10.0555277749020657   -0.6464477664341431   -0.0001934404581035
     0.3618621221373474   10.0697914898454197   -0.0001934431799325
    -0.0003899389793977   -0.0003527310070243    5.1013305842521932
   Hf   O 
    16    31
Direct
  0.5216407875849919  0.5216407823652895  0.9748923914475344
  0.5217053066236434  0.0040122649223130 -0.0181484005687465
  0.0040122101893308  0.5217053346985979 -0.0181484007010738
  0.0113949068687936  0.0113949946317532 -0.0184155381609046
  0.2546487419274888  0.5211399583217643  0.5264868144362890
  0.2666913832698273  0.0179538291384156  0.4834724163189060
  0.7578322671885281  0.5090614488506207  0.4837679664726474
  0.7653489874345522  0.0104214472282412  0.4782212308122593
  0.2541244410374977  0.2541244550184987 -0.0254010377734732
  0.2540006645371405  0.7718992512679516 -0.0184084335321489
  0.7718992013512023  0.2540006674284305 -0.0184084335308229
  0.7642788866658402  0.7642789254216298 -0.0183832132060779
  0.5211399305200840  0.2546487438591860  0.5264868144103433
  0.5090613849077679  0.7578323050208584  0.4837679664919310
  0.0179537423037443  0.2666913769871402  0.4834724163844784
  0.0104214173190033  0.7653489703252847  0.4782212308265254
  0.1314787727045260  0.3933664588170108  0.7890971097512575
  0.1396981382259418  0.8968757116512853  0.7679447059988175
  0.6442495540587313  0.3823832594372700  0.7894326605167199
  0.6359225554055417  0.8789007857748451  0.7683644583821726
  0.1743751790660522  0.3757338140702157  0.2889007721378179
  0.1392440336118523  0.8862750866782759  0.2696506003864607
  0.6013506871635995  0.4001121155387602  0.2892597584561792
  0.6363599758169246  0.8895359277304332  0.2700291987293673
  0.1460280092139045  0.1460279994148732  0.6939006676565579
  0.1291777380879272  0.6465583208069672  0.7109582335301736
  0.6465582833617676  0.1291777343191964  0.7109582335477330
  0.6297498576151860  0.6297498780646741  0.6942657806248029
  0.1321871874704295  0.1321871834366636  0.1974195093063257
  0.1424001029572678  0.6334414339641850  0.2110287194193962
  0.6334414490974259  0.1424000949971405  0.2110287193432136
  0.6436041242160246  0.6436040930321848  0.1977718448142797
  0.3878852802044638  0.3878853864791501  0.7399251537545700
  0.3877754565336822  0.8878328113280805  0.6875940348595549
  0.8878328782483068  0.3877755496534007  0.6875940348812350
  0.8877971668340019  0.8877971330455262  0.6922590844462727
  0.3878128787297861  0.8879535607860912  0.1980050813859677
  0.8879534960365570  0.3878128967750661  0.1980050812547471
  0.8878392118003013  0.8878393125790712  0.1960016176336048
  0.3933664584458116  0.1314787639148345  0.7890971098182709
  0.3823832693214785  0.6442495813858069  0.7894326605000517
  0.8968757925427862  0.1396981164128955  0.7679447059701465
  0.8789008305372332  0.6359225699541410  0.7683644583151471
  0.3757337866418741  0.1743751750892324  0.2889007719002560
  0.4001121033883048  0.6013506951040001  0.2892597585947458
  0.8862750699515276  0.1392440416049488  0.2696506002366031
  0.8895359729813427  0.6363599726678109  0.2700291987199007
 
  0.00000000E+00  0.00000000E+00  0.00000000E+00
  0.00000000E+00  0.00000000E+00  0.00000000E+00
  0.00000000E+00  0.00000000E+00  0.00000000E+00
  0.00000000E+00  0.00000000E+00  0.00000000E+00
  0.00000000E+00  0.00000000E+00  0.00000000E+00
  0.00000000E+00  0.00000000E+00  0.00000000E+00
  0.00000000E+00  0.00000000E+00  0.00000000E+00
  0.00000000E+00  0.00000000E+00  0.00000000E+00
  0.00000000E+00  0.00000000E+00  0.00000000E+00
  0.00000000E+00  0.00000000E+00  0.00000000E+00
  0.00000000E+00  0.00000000E+00  0.00000000E+00
  0.00000000E+00  0.00000000E+00  0.00000000E+00
  0.00000000E+00  0.00000000E+00  0.00000000E+00
  0.00000000E+00  0.00000000E+00  0.00000000E+00
  0.00000000E+00  0.00000000E+00  0.00000000E+00
  0.00000000E+00  0.00000000E+00  0.00000000E+00
  0.00000000E+00  0.00000000E+00  0.00000000E+00
  0.00000000E+00  0.00000000E+00  0.00000000E+00
  0.00000000E+00  0.00000000E+00  0.00000000E+00
  0.00000000E+00  0.00000000E+00  0.00000000E+00
  0.00000000E+00  0.00000000E+00  0.00000000E+00
  0.00000000E+00  0.00000000E+00  0.00000000E+00
  0.00000000E+00  0.00000000E+00  0.00000000E+00
  0.00000000E+00  0.00000000E+00  0.00000000E+00
  0.00000000E+00  0.00000000E+00  0.00000000E+00
  0.00000000E+00  0.00000000E+00  0.00000000E+00
  0.00000000E+00  0.00000000E+00  0.00000000E+00
  0.00000000E+00  0.00000000E+00  0.00000000E+00
  0.00000000E+00  0.00000000E+00  0.00000000E+00
  0.00000000E+00  0.00000000E+00  0.00000000E+00
  0.00000000E+00  0.00000000E+00  0.00000000E+00
  0.00000000E+00  0.00000000E+00  0.00000000E+00
  0.00000000E+00  0.00000000E+00  0.00000000E+00
  0.00000000E+00  0.00000000E+00  0.00000000E+00
  0.00000000E+00  0.00000000E+00  0.00000000E+00
  0.00000000E+00  0.00000000E+00  0.00000000E+00
  0.00000000E+00  0.00000000E+00  0.00000000E+00
  0.00000000E+00  0.00000000E+00  0.00000000E+00
  0.00000000E+00  0.00000000E+00  0.00000000E+00
  0.00000000E+00  0.00000000E+00  0.00000000E+00
  0.00000000E+00  0.00000000E+00  0.00000000E+00
  0.00000000E+00  0.00000000E+00  0.00000000E+00
  0.00000000E+00  0.00000000E+00  0.00000000E+00
  0.00000000E+00  0.00000000E+00  0.00000000E+00
  0.00000000E+00  0.00000000E+00  0.00000000E+00
  0.00000000E+00  0.00000000E+00  0.00000000E+00
  0.00000000E+00  0.00000000E+00  0.00000000E+00
