Image 20 
1.0
    5.265652     0.000000     0.000000
    0.000000     5.048288     0.000000
    0.000000     0.000000     5.076835
  Hf   O
   4   8
Direct
    0.000000     0.000000     0.000000 
    0.499954     0.466910     0.000006 
    0.934264     0.466910     0.500006 
    0.434218     0.000000     0.500000 
    0.737062     0.196327     0.750254 
    0.237097     0.270726     0.750062 
    0.697156     0.196327     0.250254 
    0.197121     0.270726     0.250062 
    0.602110     0.665930     0.643490 
    0.102015     0.801076     0.643441 
    0.832107     0.665930     0.143490 
    0.332203     0.801076     0.143441 

  0.00000000E+00  0.00000000E+00  0.00000000E+00
  0.00000000E+00  0.00000000E+00  0.00000000E+00
  0.00000000E+00  0.00000000E+00  0.00000000E+00
  0.00000000E+00  0.00000000E+00  0.00000000E+00
  0.00000000E+00  0.00000000E+00  0.00000000E+00
  0.00000000E+00  0.00000000E+00  0.00000000E+00
  0.00000000E+00  0.00000000E+00  0.00000000E+00
  0.00000000E+00  0.00000000E+00  0.00000000E+00
  0.00000000E+00  0.00000000E+00  0.00000000E+00
  0.00000000E+00  0.00000000E+00  0.00000000E+00
  0.00000000E+00  0.00000000E+00  0.00000000E+00
  0.00000000E+00  0.00000000E+00  0.00000000E+00
