PO1 vo3 O21                             
   1.00000000000000     
    10.0385213242735176    0.0368737069248799    0.0363222430270119
     0.0370669683438005   10.1061547176478950   -0.0264921155866144
     0.0189220388234237   -0.0137915776152912    5.2059067916058721
   Hf   O 
    16    31
Direct
 -0.0048577643062026  0.9920969639762184 -0.0021239813416712
  0.0027078739306749  0.5026717398518351  0.9972093539344138
  0.5000683216590062  0.0009394875203020  0.0051166375036029
  0.5099074554214310  0.5160950761551133 -0.0104580054898920
  0.2345719305364297  0.9972769928009447  0.4843926303259998
  0.2351280725223986  0.5022176070131570  0.5029054406363523
  0.7357353520388851 -0.0027058670457347  0.5005037986795652
  0.7365441402837878  0.4949388559685173  0.4996579359931548
  0.2168358372630684  0.2376057200948286  0.9132902786473447
  0.2334464026664948  0.7522619331109748  0.9363933210589235
  0.7360846205685904  0.2463157872037895  0.9478430940190954
  0.7356499118856078  0.7519404176083934  0.9323717420511171
  0.9987313116706313  0.2495643625662655  0.4236019199488659
  0.0023030086935964  0.7471029059164573  0.4377965190153065
  0.5053826257641141  0.2434464650591605  0.4773890550484431
  0.5008609306580930  0.7505352812797722  0.4377320686928468
  0.0919513167011563  0.3723574143073455  0.7168455457554909
  0.0990478800731670  0.8747961674889606  0.7293672305425959
  0.6003000744672965  0.3738250940099175  0.7586160723762683
  0.5953383009744109  0.8744340724386500  0.7354368629669129
  0.1563161512687636  0.3679791027385342  0.2187508331882131
  0.1344004879212760  0.8716958851832706  0.2330538211672485
  0.6053340965027091  0.3734105944664421  0.2429388735963195
  0.6342811730213730  0.8750648434400284  0.2348867753245348
  0.0972754063782609  0.1228731009899161  0.6875954629439603
  0.0997134857562730  0.6245160994921464  0.7059674294663559
  0.5996058075297731  0.1223955038666267  0.7155978635246679
  0.6011529929896922  0.6252411780695897  0.6968346054436245
  0.1274065701434779  0.1188037151373259  0.1861719633272484
  0.1385599666320566  0.6226712505164482  0.2031784050225288
  0.6341281792037433  0.1242944746709721  0.2158533803229170
  0.6419271144958996  0.6257429386931633  0.1998373011956399
  0.3429379213220458  0.3322901514478286  0.6460376668828338
  0.3349557834430564  0.8263669958624674  0.6050050100040704
  0.8247580173581076  0.3125335636777322  0.5934358145220372
  0.8337673874020413  0.8212387491521915  0.6030605205780648
  0.3960776955339843  0.8327706155080320  0.1161136202617344
  0.9022361501458644  0.3251716578880318  0.0999658245436680
  0.9019740840855704  0.8162170456430949  0.1049165114045039
  0.3390656707475258  0.0770416619643619  0.8051384175911042
  0.3384299652091941  0.5794865205609794  0.8274016040486377
  0.8301978694586946  0.0692642010504282  0.8378698105599556
  0.8334264926530186  0.5687043863323618  0.8287123174687804
  0.3838446035677435  0.1082145863520347  0.2959095316538176
  0.4019720311424879  0.5686759488624634  0.3224948003320970
  0.8992607177226273  0.0715312554511810  0.3330970235708566
  0.9045944018920680  0.5653787906574882  0.3355004416898120
 
  0.00000000E+00  0.00000000E+00  0.00000000E+00
  0.00000000E+00  0.00000000E+00  0.00000000E+00
  0.00000000E+00  0.00000000E+00  0.00000000E+00
  0.00000000E+00  0.00000000E+00  0.00000000E+00
  0.00000000E+00  0.00000000E+00  0.00000000E+00
  0.00000000E+00  0.00000000E+00  0.00000000E+00
  0.00000000E+00  0.00000000E+00  0.00000000E+00
  0.00000000E+00  0.00000000E+00  0.00000000E+00
  0.00000000E+00  0.00000000E+00  0.00000000E+00
  0.00000000E+00  0.00000000E+00  0.00000000E+00
  0.00000000E+00  0.00000000E+00  0.00000000E+00
  0.00000000E+00  0.00000000E+00  0.00000000E+00
  0.00000000E+00  0.00000000E+00  0.00000000E+00
  0.00000000E+00  0.00000000E+00  0.00000000E+00
  0.00000000E+00  0.00000000E+00  0.00000000E+00
  0.00000000E+00  0.00000000E+00  0.00000000E+00
  0.00000000E+00  0.00000000E+00  0.00000000E+00
  0.00000000E+00  0.00000000E+00  0.00000000E+00
  0.00000000E+00  0.00000000E+00  0.00000000E+00
  0.00000000E+00  0.00000000E+00  0.00000000E+00
  0.00000000E+00  0.00000000E+00  0.00000000E+00
  0.00000000E+00  0.00000000E+00  0.00000000E+00
  0.00000000E+00  0.00000000E+00  0.00000000E+00
  0.00000000E+00  0.00000000E+00  0.00000000E+00
  0.00000000E+00  0.00000000E+00  0.00000000E+00
  0.00000000E+00  0.00000000E+00  0.00000000E+00
  0.00000000E+00  0.00000000E+00  0.00000000E+00
  0.00000000E+00  0.00000000E+00  0.00000000E+00
  0.00000000E+00  0.00000000E+00  0.00000000E+00
  0.00000000E+00  0.00000000E+00  0.00000000E+00
  0.00000000E+00  0.00000000E+00  0.00000000E+00
  0.00000000E+00  0.00000000E+00  0.00000000E+00
  0.00000000E+00  0.00000000E+00  0.00000000E+00
  0.00000000E+00  0.00000000E+00  0.00000000E+00
  0.00000000E+00  0.00000000E+00  0.00000000E+00
  0.00000000E+00  0.00000000E+00  0.00000000E+00
  0.00000000E+00  0.00000000E+00  0.00000000E+00
  0.00000000E+00  0.00000000E+00  0.00000000E+00
  0.00000000E+00  0.00000000E+00  0.00000000E+00
  0.00000000E+00  0.00000000E+00  0.00000000E+00
  0.00000000E+00  0.00000000E+00  0.00000000E+00
  0.00000000E+00  0.00000000E+00  0.00000000E+00
  0.00000000E+00  0.00000000E+00  0.00000000E+00
  0.00000000E+00  0.00000000E+00  0.00000000E+00
  0.00000000E+00  0.00000000E+00  0.00000000E+00
  0.00000000E+00  0.00000000E+00  0.00000000E+00
  0.00000000E+00  0.00000000E+00  0.00000000E+00
