PO2 vo3 O32                             
   1.00000000000000     
    10.5084166094090925    0.0221230990198093   -0.0022447925481662
     0.0213357219226546   10.1502140594405521    0.0106706550206536
    -0.0010695042071207    0.0053007217492411    5.0439947044349980
   Hf   O 
    16    31
Direct
  0.0004100833010646  0.0010939785996223  0.0005039163791988
 -0.0008354413938211  0.5008538658302529  0.0007321425638665
  0.5006608371231869  0.0000612003201932  0.0022684059820467
  0.4991801248928311  0.4977360144333140 -0.0017443091248502
  0.2510854987627641 -0.0014575234592145  0.4676372062804703
  0.2495671192401668  0.4997015687874428  0.4658653199083402
  0.7498828085099725  0.0015685043124739  0.4656486044586008
  0.7481689659868918  0.5015433222289427  0.4646497561799502
  0.4667461637403993  0.2489767671548349  0.4670879051107715
  0.4708530524503386  0.7477373917856427  0.4687633949991362
  0.9668884955430641  0.2502747122027907  0.4670851982925130
  0.9665455884531778  0.7512233280660077  0.4669677706193731
  0.2167860494151039  0.2497510131249616  0.0006345577134753
  0.2176824650237728  0.7502355724233329  0.0008637640406799
  0.7168767977281368  0.2530357007275408 -0.0008386338899174
  0.7174665026023158  0.7508686253438436 -0.0039689298125741
  0.3672163955931244  0.3738912977521096  0.1963102702341648
  0.3696194749806071  0.8740434227545927  0.1968403124823606
  0.8679641828240737  0.3765596521532261  0.1976093498460872
  0.8697158278642034  0.8763822021952542  0.1956630437462598
  0.1178759043023161  0.3755262156594358  0.2718985558233626
  0.1190456542707413  0.8749796901318344  0.2711704847600147
  0.6165306508808738  0.3742704008334078  0.2758405101085039
  0.6190604678436554  0.8743391667243658  0.2737817491903789
  0.3492398120113295  0.1242558007088643  0.1961929719473514
  0.3486644411099776  0.6242013657884551  0.1966566961610872
  0.8491912881878371  0.1268724365620070  0.1948514254385745
  0.8481551783574940  0.6254379047300739  0.1954556002346308
  0.0992762310700254  0.1253112894002447  0.2718563630710629
  0.0977608026736160  0.6248573482873399  0.2721951096833243
  0.5993358455449203  0.1249884038637575  0.2712778498942374
  0.6005865694772020  0.6234486812378998  0.2579376078861541
  0.3005458196024804  0.3216882994462045  0.6666380193987742
  0.3025103057833253  0.8194015556419431  0.6659075933609251
  0.8001443894864746  0.3237342695458592  0.6641953920256607
  0.8004663472267303  0.8224343291336695  0.6630669948589187
  0.0499910811134056  0.3222627913899722  0.8021838452612547
  0.0511064677698943  0.8220219996079625  0.8008518880204820
  0.5493457471276763  0.3210315049740919  0.8029331980532428
  0.5513664746469814  0.8210115090381566  0.8045751973130651
  0.4164853812956818  0.0706062272238756  0.6661163794924533
  0.4203463138448642  0.5689970968705796  0.6629864516355795
  0.9162320721769577  0.0723089553635586  0.6651523795687190
  0.9097849366885082  0.5737023901303820  0.6704748734181200
  0.1668482965191470  0.0712839149195246  0.8017797607751408
  0.1657197656673965  0.5716818311424258  0.8006801565842152
  0.6664152476791119  0.0725553229069648  0.8014396350247079
 
  0.00000000E+00  0.00000000E+00  0.00000000E+00
  0.00000000E+00  0.00000000E+00  0.00000000E+00
  0.00000000E+00  0.00000000E+00  0.00000000E+00
  0.00000000E+00  0.00000000E+00  0.00000000E+00
  0.00000000E+00  0.00000000E+00  0.00000000E+00
  0.00000000E+00  0.00000000E+00  0.00000000E+00
  0.00000000E+00  0.00000000E+00  0.00000000E+00
  0.00000000E+00  0.00000000E+00  0.00000000E+00
  0.00000000E+00  0.00000000E+00  0.00000000E+00
  0.00000000E+00  0.00000000E+00  0.00000000E+00
  0.00000000E+00  0.00000000E+00  0.00000000E+00
  0.00000000E+00  0.00000000E+00  0.00000000E+00
  0.00000000E+00  0.00000000E+00  0.00000000E+00
  0.00000000E+00  0.00000000E+00  0.00000000E+00
  0.00000000E+00  0.00000000E+00  0.00000000E+00
  0.00000000E+00  0.00000000E+00  0.00000000E+00
  0.00000000E+00  0.00000000E+00  0.00000000E+00
  0.00000000E+00  0.00000000E+00  0.00000000E+00
  0.00000000E+00  0.00000000E+00  0.00000000E+00
  0.00000000E+00  0.00000000E+00  0.00000000E+00
  0.00000000E+00  0.00000000E+00  0.00000000E+00
  0.00000000E+00  0.00000000E+00  0.00000000E+00
  0.00000000E+00  0.00000000E+00  0.00000000E+00
  0.00000000E+00  0.00000000E+00  0.00000000E+00
  0.00000000E+00  0.00000000E+00  0.00000000E+00
  0.00000000E+00  0.00000000E+00  0.00000000E+00
  0.00000000E+00  0.00000000E+00  0.00000000E+00
  0.00000000E+00  0.00000000E+00  0.00000000E+00
  0.00000000E+00  0.00000000E+00  0.00000000E+00
  0.00000000E+00  0.00000000E+00  0.00000000E+00
  0.00000000E+00  0.00000000E+00  0.00000000E+00
  0.00000000E+00  0.00000000E+00  0.00000000E+00
  0.00000000E+00  0.00000000E+00  0.00000000E+00
  0.00000000E+00  0.00000000E+00  0.00000000E+00
  0.00000000E+00  0.00000000E+00  0.00000000E+00
  0.00000000E+00  0.00000000E+00  0.00000000E+00
  0.00000000E+00  0.00000000E+00  0.00000000E+00
  0.00000000E+00  0.00000000E+00  0.00000000E+00
  0.00000000E+00  0.00000000E+00  0.00000000E+00
  0.00000000E+00  0.00000000E+00  0.00000000E+00
  0.00000000E+00  0.00000000E+00  0.00000000E+00
  0.00000000E+00  0.00000000E+00  0.00000000E+00
  0.00000000E+00  0.00000000E+00  0.00000000E+00
  0.00000000E+00  0.00000000E+00  0.00000000E+00
  0.00000000E+00  0.00000000E+00  0.00000000E+00
  0.00000000E+00  0.00000000E+00  0.00000000E+00
  0.00000000E+00  0.00000000E+00  0.00000000E+00
