PO2 vo3 O32                             
   1.00000000000000     
    10.3919153856046336    0.0363386665299311   -0.0335435800403521
     0.0349291822023808   10.1148233113597161    0.0311009002940128
    -0.0161318508172199    0.0154714025856427    5.0284733356209879
   Hf   O 
    16    31
Direct
  0.0010775790123030  0.0026277775816248  0.0042244681841049
  0.0034486297863359  0.5039299638285470 -0.0068126788773471
  0.4964738255343656 -0.0016831546308811  0.0065810784797783
  0.4842012843287940  0.4902525675234374  0.0158928758229819
  0.2493523670701087 -0.0009218972268654  0.4696117508482666
  0.2476844370079744  0.4984008101657221  0.4706018252709159
  0.7497918430618111  0.0054714754327450  0.4707181528453295
  0.7571533922008095  0.4907306655422034  0.4195815526111142
  0.4680610469284481  0.2461607808020969  0.4737558185144448
  0.4673071348851924  0.7504251677480276  0.4696565416766124
  0.9689984473115775  0.2490502512553748  0.4687779058672852
  0.9668814501194847  0.7512825009630637  0.4724480249299518
  0.2152369767781521  0.2479643958109103  0.0030077831495583
  0.2161392842440530  0.7528998994870072  0.0071511049026096
  0.7167289331578093  0.2457955464755558 -0.0101948190996932
  0.7239606840158334  0.7679995547710782  0.0176943866756416
  0.3625446852494723  0.3700681424448244  0.2057785035364849
  0.3650371758475737  0.8728826773963171  0.1946655917455272
  0.8657304813819606  0.3776696079929774  0.1808252024366778
  0.8661614967847694  0.8798889070039614  0.2022830645523049
  0.1157566200737143  0.3762764863195434  0.2740164315502414
  0.1150480501456722  0.8749401674902000  0.2794074012430049
  0.6137876963861065  0.3712551831815770  0.2634735421479703
  0.6155359441109509  0.8758669102744407  0.2843370324570854
  0.3505490672593092  0.1229823136965790  0.1977019882417949
  0.3480042399000861  0.6219930702666935  0.2011122465700889
  0.8518144166500143  0.1277808522274646  0.1953779019125131
  0.8529240318546609  0.6279371253002675  0.1783766143455940
  0.1012217952286104  0.1250344768933393  0.2764925536984174
  0.0985502137182239  0.6244419965959959  0.2781614461449288
  0.6001758092900685  0.1242328729460587  0.2710383281645299
  0.6088791585173384  0.6195687359090997  0.2184338366563130
  0.3050447408711604  0.3255954718695473  0.6795754280157223
  0.3039304677824756  0.8180035642710934  0.6665602165771630
  0.7995043500148921  0.3225765309690213  0.6535086733134684
  0.7994777558054801  0.8227414436085846  0.6659832576749529
  0.0508074490358647  0.3246971508333586  0.8014223755584716
  0.0492055157173401  0.8206201091978558  0.8084509127928752
  0.5573309842528081  0.3336361639366656  0.7910318109277824
  0.5551118747012490  0.8142810544711897  0.8069983484163168
  0.4161413700585577  0.0710992513195339  0.6687088516579187
  0.4375202547805433  0.5686574333937109  0.6580185686016866
  0.9149713233778302  0.0743454154532991  0.6690582302599812
  0.8948462478172144  0.5726984471297545  0.6702220535681971
  0.1659425148214576  0.0708469777403589  0.8051728870607079
  0.1668922477677361  0.5738901216450362  0.8019438047518125
  0.6635671903538123  0.0703963506920604  0.8058428586178121
 
  0.00000000E+00  0.00000000E+00  0.00000000E+00
  0.00000000E+00  0.00000000E+00  0.00000000E+00
  0.00000000E+00  0.00000000E+00  0.00000000E+00
  0.00000000E+00  0.00000000E+00  0.00000000E+00
  0.00000000E+00  0.00000000E+00  0.00000000E+00
  0.00000000E+00  0.00000000E+00  0.00000000E+00
  0.00000000E+00  0.00000000E+00  0.00000000E+00
  0.00000000E+00  0.00000000E+00  0.00000000E+00
  0.00000000E+00  0.00000000E+00  0.00000000E+00
  0.00000000E+00  0.00000000E+00  0.00000000E+00
  0.00000000E+00  0.00000000E+00  0.00000000E+00
  0.00000000E+00  0.00000000E+00  0.00000000E+00
  0.00000000E+00  0.00000000E+00  0.00000000E+00
  0.00000000E+00  0.00000000E+00  0.00000000E+00
  0.00000000E+00  0.00000000E+00  0.00000000E+00
  0.00000000E+00  0.00000000E+00  0.00000000E+00
  0.00000000E+00  0.00000000E+00  0.00000000E+00
  0.00000000E+00  0.00000000E+00  0.00000000E+00
  0.00000000E+00  0.00000000E+00  0.00000000E+00
  0.00000000E+00  0.00000000E+00  0.00000000E+00
  0.00000000E+00  0.00000000E+00  0.00000000E+00
  0.00000000E+00  0.00000000E+00  0.00000000E+00
  0.00000000E+00  0.00000000E+00  0.00000000E+00
  0.00000000E+00  0.00000000E+00  0.00000000E+00
  0.00000000E+00  0.00000000E+00  0.00000000E+00
  0.00000000E+00  0.00000000E+00  0.00000000E+00
  0.00000000E+00  0.00000000E+00  0.00000000E+00
  0.00000000E+00  0.00000000E+00  0.00000000E+00
  0.00000000E+00  0.00000000E+00  0.00000000E+00
  0.00000000E+00  0.00000000E+00  0.00000000E+00
  0.00000000E+00  0.00000000E+00  0.00000000E+00
  0.00000000E+00  0.00000000E+00  0.00000000E+00
  0.00000000E+00  0.00000000E+00  0.00000000E+00
  0.00000000E+00  0.00000000E+00  0.00000000E+00
  0.00000000E+00  0.00000000E+00  0.00000000E+00
  0.00000000E+00  0.00000000E+00  0.00000000E+00
  0.00000000E+00  0.00000000E+00  0.00000000E+00
  0.00000000E+00  0.00000000E+00  0.00000000E+00
  0.00000000E+00  0.00000000E+00  0.00000000E+00
  0.00000000E+00  0.00000000E+00  0.00000000E+00
  0.00000000E+00  0.00000000E+00  0.00000000E+00
  0.00000000E+00  0.00000000E+00  0.00000000E+00
  0.00000000E+00  0.00000000E+00  0.00000000E+00
  0.00000000E+00  0.00000000E+00  0.00000000E+00
  0.00000000E+00  0.00000000E+00  0.00000000E+00
  0.00000000E+00  0.00000000E+00  0.00000000E+00
  0.00000000E+00  0.00000000E+00  0.00000000E+00
