PO2 vo4 O1                              
   1.00000000000000     
    10.5235246948002334    0.0117401630408566    0.0114101244924396
     0.0113021881113605   10.1213028046892788    0.0105404262202219
     0.0054728160294169    0.0052506720155186    5.0461610770333403
   Hf   O 
    16    31
Direct
 -0.0004579001546955 -0.0003606365618233  0.0001401281032342
  0.0010821316559833  0.5010277973314287  0.0001986199260781
  0.5003338276611616  0.0020663618403113 -0.0015240248824552
  0.4982552320753206  0.5002159943930611  0.0063424400966032
  0.2511718957981441  0.0015609521472195  0.4640397329433127
  0.2523125877245574  0.4995391258752641  0.4663219862947136
  0.7490799117304197  0.0001339409934956  0.4657788663509587
  0.7502521476956315  0.5009115017707645  0.4687813379539629
  0.4686895680381140  0.2545439534799532  0.4664315337916896
  0.4673091838765421  0.7506463539768269  0.4690866009212029
  0.9662481489509241  0.2491798827835830  0.4664436018254603
  0.9673716804083344  0.7503404842178460  0.4663550900091709
  0.2152986235395875  0.2494062398314846 -0.0054672436971169
  0.2165272061121624  0.7495588574886337 -0.0014129622075561
  0.7160376115385069  0.2505278815176054  0.0020236837507177
  0.7170111145012109  0.7496756689613282  0.0007425659094664
  0.3677204633677716  0.8758851952720484  0.1928568038712405
  0.8687781835411387  0.3754002358586644  0.1967611314514532
  0.8676671906605777  0.8751810018869560  0.1952557132663257
  0.1233292377544411  0.3756010482151792  0.2649583283254014
  0.1179878350761949  0.8756115214042177  0.2711053892755933
  0.6162414723023766  0.3754120374221200  0.2776688534723763
  0.6178039566206924  0.8752871386413209  0.2702663423548123
  0.3503301839305966  0.1331746316599030  0.1950448123894551
  0.3499569672864128  0.6195600365666312  0.1911609692705959
  0.8488145245392275  0.1251304379244508  0.1944209984373855
  0.8496919613583376  0.6254765702627666  0.1960299904589781
  0.0987691794007330  0.1253932133993977  0.2695679862431103
  0.0993475777688217  0.6256480122872042  0.2722001330378334
  0.5996285264891060  0.1251875795546785  0.2721469860689691
  0.5995001577270171  0.6255237043435353  0.2744053755886074
  0.3022624140576445  0.3224097301181916  0.6635909335363450
  0.2996293039112175  0.8203170851218401  0.6616992193352239
  0.7989946917785766  0.3202562159732393  0.6648228760852395
  0.8002030360062461  0.8206831146599098  0.6647058888861618
  0.0496480376942048  0.3217901432270987  0.7977754861880422
  0.0502438556129977  0.8200932753885116  0.8033874894537270
  0.5467239665966920  0.3194799863505609  0.8137681124411092
  0.5507296816705375  0.8217014613076038  0.8010735192028371
  0.4154918913597807  0.0694737469600399  0.6630582226829900
  0.4169758566882489  0.5725059976229756  0.6672228740379310
  0.9162842103200809  0.0706270938384767  0.6634354997100614
  0.9163716166225708  0.5710318826891739  0.6652841372885698
  0.1661458733532167  0.0696743743046709  0.8003211241595363
  0.1667532759764840  0.5707972436477859  0.8035854499080166
  0.6665903178180024  0.0716242692852230  0.8024479317888682
  0.6669445905581477  0.5689724637586576  0.8071141766936548
 
  0.00000000E+00  0.00000000E+00  0.00000000E+00
  0.00000000E+00  0.00000000E+00  0.00000000E+00
  0.00000000E+00  0.00000000E+00  0.00000000E+00
  0.00000000E+00  0.00000000E+00  0.00000000E+00
  0.00000000E+00  0.00000000E+00  0.00000000E+00
  0.00000000E+00  0.00000000E+00  0.00000000E+00
  0.00000000E+00  0.00000000E+00  0.00000000E+00
  0.00000000E+00  0.00000000E+00  0.00000000E+00
  0.00000000E+00  0.00000000E+00  0.00000000E+00
  0.00000000E+00  0.00000000E+00  0.00000000E+00
  0.00000000E+00  0.00000000E+00  0.00000000E+00
  0.00000000E+00  0.00000000E+00  0.00000000E+00
  0.00000000E+00  0.00000000E+00  0.00000000E+00
  0.00000000E+00  0.00000000E+00  0.00000000E+00
  0.00000000E+00  0.00000000E+00  0.00000000E+00
  0.00000000E+00  0.00000000E+00  0.00000000E+00
  0.00000000E+00  0.00000000E+00  0.00000000E+00
  0.00000000E+00  0.00000000E+00  0.00000000E+00
  0.00000000E+00  0.00000000E+00  0.00000000E+00
  0.00000000E+00  0.00000000E+00  0.00000000E+00
  0.00000000E+00  0.00000000E+00  0.00000000E+00
  0.00000000E+00  0.00000000E+00  0.00000000E+00
  0.00000000E+00  0.00000000E+00  0.00000000E+00
  0.00000000E+00  0.00000000E+00  0.00000000E+00
  0.00000000E+00  0.00000000E+00  0.00000000E+00
  0.00000000E+00  0.00000000E+00  0.00000000E+00
  0.00000000E+00  0.00000000E+00  0.00000000E+00
  0.00000000E+00  0.00000000E+00  0.00000000E+00
  0.00000000E+00  0.00000000E+00  0.00000000E+00
  0.00000000E+00  0.00000000E+00  0.00000000E+00
  0.00000000E+00  0.00000000E+00  0.00000000E+00
  0.00000000E+00  0.00000000E+00  0.00000000E+00
  0.00000000E+00  0.00000000E+00  0.00000000E+00
  0.00000000E+00  0.00000000E+00  0.00000000E+00
  0.00000000E+00  0.00000000E+00  0.00000000E+00
  0.00000000E+00  0.00000000E+00  0.00000000E+00
  0.00000000E+00  0.00000000E+00  0.00000000E+00
  0.00000000E+00  0.00000000E+00  0.00000000E+00
  0.00000000E+00  0.00000000E+00  0.00000000E+00
  0.00000000E+00  0.00000000E+00  0.00000000E+00
  0.00000000E+00  0.00000000E+00  0.00000000E+00
  0.00000000E+00  0.00000000E+00  0.00000000E+00
  0.00000000E+00  0.00000000E+00  0.00000000E+00
  0.00000000E+00  0.00000000E+00  0.00000000E+00
  0.00000000E+00  0.00000000E+00  0.00000000E+00
  0.00000000E+00  0.00000000E+00  0.00000000E+00
  0.00000000E+00  0.00000000E+00  0.00000000E+00
