Image 20 
1.0
       10.5313043594         0.0000000000         0.0000000000
        0.0000000000        10.1536703110         0.0000000000
        0.0000000000         0.0000000000         5.0482878685
   Hf    O
   16   32
Direct
     0.000000000         0.000000000         0.000000000
    -0.000000000         0.500000000         0.000000000
     0.500000000         0.000000000         0.000000000
     0.500000000         0.500000000         0.000000000
     0.249976999         0.000003000         0.466910021
     0.249976999         0.500002959         0.466910021
     0.749976976         0.000003000         0.466910021
     0.749976976         0.500002959         0.466910021
     0.467132014         0.250003006         0.466910021
     0.467132014         0.750002982         0.466910021
     0.967132014         0.250003006         0.466910021
     0.967132014         0.750002982         0.466910021
     0.217108990         0.250000000         0.000000000
     0.217108990         0.749999977         0.000000000
     0.717108944         0.250000000         0.000000000
     0.717108944         0.749999977         0.000000000
     0.368530997         0.375126997         0.196327000
     0.368530997         0.875126974         0.196327000
     0.868530952         0.375126997         0.196327000
     0.868530952         0.875126974         0.196327000
     0.118548497         0.375030983         0.270726003
     0.118548497         0.875030983         0.270726003
     0.618548497         0.375030983         0.270726003
     0.618548497         0.875030983         0.270726003
     0.348578015         0.125126997         0.196327000
     0.348578015         0.625126997         0.196327000
     0.848577992         0.125126997         0.196327000
     0.848577992         0.625126997         0.196327000
     0.098560492         0.125030995         0.270726003
     0.098560492         0.625031007         0.270726003
     0.598560492         0.125030995         0.270726003
     0.598560492         0.625031007         0.270726003
     0.301055011         0.321745002         0.665929963
     0.301055011         0.821745025         0.665929963
     0.801055033         0.321745002         0.665929963
     0.801055033         0.821745025         0.665929963
     0.051007503         0.321720511         0.801075977
     0.051007503         0.821720511         0.801075977
     0.551007514         0.321720511         0.801075977
     0.551007514         0.821720511         0.801075977
     0.416053503         0.071745002         0.665929963
     0.416053503         0.571745002         0.665929963
     0.916053549         0.071745002         0.665929963
     0.916053549         0.571745002         0.665929963
     0.166101498         0.071720505         0.801075977
     0.166101498         0.571720488         0.801075977
     0.666101521         0.071720505         0.801075977
     0.666101521         0.571720488         0.801075977
