&control
  calculation ='scf'
  restart_mode ='from_scratch',
  prefix       ='ZnO',
  outdir='./temp'
  pseudo_dir='./GBRV_PBEsol'
  disk_io='low'
  etot_conv_thr=1.D-7,
  forc_conv_thr=1.D-6,
  verbosity    ='high',
!  tprnfor=.t.
!  tstress=.t.
  nstep=200
!  tefield = .true.
!  dipfield = .true.

 /
&system
  nosym = .true.,
  ibrav= 0,
  nat=  72,
  ntyp= 3,
  tot_charge = 0.0
  ecutwfc =  60,
  ecutrho = 500,
  occupations='smearing', smearing='mv', degauss=0.001,
!  eamp = 0.0
!  edir = 3
!  emaxpos = 0.1
!  eopreg = 0.05

!  input_dft='hse', nqx1=2, nqx2=2, nqx3=1,
!  x_gamma_extrapolation = .true.
!  vdw_corr = DFT-D3
/

&electrons
    mixing_mode = 'plain'
    mixing_beta = 0.5,
    conv_thr =  1.0d-8
!   Startingpot = 'file'
!   Startingwfc = 'file'
/

&IONS
  upscale           = 100.D0,
/

&CELL
  cell_dynamics     = 'bfgs'
  press_conv_thr    = 0.5d0
  cell_dofree = 'all'
/

ATOMIC_SPECIES
Zn 65.38   zn_pbesol_v1.uspp.F.UPF
O  15.999  o_pbesol_v1.2.uspp.F.UPF
Mg 24.305   mg_pbesol_v1.4.uspp.F.UPF

K_POINTS {automatic}
4 4 4 0 0 0 

CELL_PARAMETERS (angstrom)
   9.734857490  -0.011377777  -0.002414087
  -4.877266184   8.443328129   0.002072144
  -0.002584960   0.001066097  10.436369607855

ATOMIC_POSITIONS (crystal)
Zn       0.223553060   0.111397770   0.193395097
Zn       0.222748029   0.111761341   0.693395231
Zn       0.222168940   0.445118550   0.193206641
Zn       0.221993349   0.443758912   0.692878173
Zn       0.221913029   0.777168434   0.193038311
Zn       0.221992569   0.778052043   0.692778838
Zn       0.554096743   0.109844606   0.193134888
Mg       0.555044566   0.110197994   0.695488222
Zn       0.555316722   0.444763447   0.193275008
Mg       0.555351170   0.445310279   0.695367769
Mg       0.554951989   0.778474304   0.194628817
Zn       0.552863532   0.776485024   0.692816601
Zn       0.885091461   0.106831590   0.193790909
Zn       0.891249914   0.113740593   0.693878400
Mg       0.886318822   0.441901022   0.193884446
Zn       0.888943559   0.444496137   0.692213844
Mg       0.887036062   0.778270613   0.194408860
Zn       0.891198628   0.777576117   0.691938700
Zn       0.111661986   0.222914568   0.442759103
Mg       0.112558571   0.222809483   0.945955081
Mg       0.112485165   0.556227086   0.443591838
Mg       0.112186359   0.555976853   0.943012620
Zn       0.112830630   0.889758938   0.442572995
Mg       0.112659990   0.889790929   0.944290220
Zn       0.445937754   0.223223179   0.443473813
Zn       0.443590225   0.222065375   0.943297549
Zn       0.444258908   0.553977325   0.443262767
Zn       0.443880170   0.556674617   0.944017019
Zn       0.443939962   0.890543783   0.443541221
Zn       0.443904455   0.887063879   0.943888406
Zn       0.776733339   0.221395861   0.443616612
Zn       0.779091008   0.223270965   0.943791844
Zn       0.776518784   0.554587153   0.442370901
Zn       0.780161903   0.556884202   0.943465890
Mg       0.778329842   0.890389281   0.445620374
Zn       0.777135653   0.887460290   0.941547182
O        0.222112058   0.110885595   0.003450053
O        0.222560851   0.111660994   0.502965966
O        0.221543305   0.444587090   0.003074819
O        0.222143505   0.444336479   0.503006548
O        0.221371506   0.776958591   0.002697965
O        0.221891965   0.777728019   0.503042067
O        0.555455593   0.110810589   0.002341335
O        0.555360005   0.111338539   0.505621572
O        0.556191892   0.445200312   0.002180052
O        0.555667638   0.444598740   0.505456820
O        0.556199183   0.778069784   0.004959289
O        0.554752975   0.777680503   0.502036275
O        0.888842256   0.110159444   0.003038936
O        0.889618806   0.112204381   0.503775772
O        0.890421340   0.445102153   0.004334376
O        0.889289118   0.444645002   0.501466034
O        0.890204701   0.778987004   0.004392736
O        0.889243513   0.777961289   0.501504382
O        0.110081353   0.221471157   0.251919933
O        0.112293781   0.222591502   0.755830152
O        0.109216970   0.554501762   0.253661423
O        0.111211233   0.555506356   0.752788732
O        0.110405988   0.888530479   0.251907069
O        0.112113399   0.889715730   0.754460333
O        0.445390650   0.222912250   0.253556751
O        0.445603249   0.222965905   0.752964956
O        0.444471857   0.555820851   0.253007758
O        0.444186675   0.555657437   0.753789554
O        0.443573135   0.888583911   0.253393678
O        0.444152656   0.888519261   0.753741924
O        0.776481463   0.220462885   0.253319560
O        0.778038134   0.222637941   0.753400155
O        0.778034144   0.555686916   0.252192465
O        0.778486004   0.555904804   0.753046031
O        0.775731390   0.886827171   0.256080690
O        0.777960859   0.888626626   0.750689646

