Pnm21                                   
1.0
       10.2336759567         0.0000000000         0.0000000000
        1.0228793052        10.1824338264         0.0000000000
       -0.0000048312        -0.0000043702         5.1830797195
   Hf    O
   16   32
Direct
     0.499190244         0.499190239         0.000797550
     0.499190211         0.999190252         0.000797550
     0.999190197         0.499190239         0.000797550
     0.999190164         0.999190252         0.000797550
     0.249190458         0.499190584         0.476643113
     0.249190466         0.999190643         0.476643113
     0.749190458         0.499190584         0.476643113
     0.749190513         0.999190643         0.476643113
     0.249190617         0.249190631         0.000796408
     0.249190628         0.749190667         0.000796408
     0.749190617         0.249190631         0.000796408
     0.749190628         0.749190667         0.000796408
     0.499190556         0.249190460         0.476643113
     0.499190520         0.749190496         0.476643113
     0.999190556         0.249190460         0.476643113
     0.999190613         0.749190496         0.476643113
     0.162892992         0.412893762         0.808745701
     0.162893005         0.912893774         0.808745701
     0.662892992         0.412893762         0.808745701
     0.662893005         0.912893774         0.808745701
     0.125780943         0.375781976         0.294430319
     0.125780931         0.875782012         0.294430319
     0.625780920         0.375781976         0.294430319
     0.625780931         0.875782012         0.294430319
     0.162893928         0.162893918         0.668693063
     0.162893922         0.662893895         0.668693063
     0.662893858         0.162893918         0.668693063
     0.662893875         0.662893895         0.668693063
     0.125781364         0.125781360         0.183008549
     0.125781368         0.625781349         0.183008549
     0.625781364         0.125781360         0.183008549
     0.625781380         0.625781349         0.183008549
     0.412892378         0.412892484         0.668695823
     0.412892391         0.912892497         0.668695823
     0.912892564         0.412892484         0.668695823
     0.912892531         0.912892497         0.668695823
     0.375780775         0.375780804         0.183010493
     0.375780786         0.875780840         0.183010493
     0.875780775         0.375780804         0.183010493
     0.875780739         0.875780840         0.183010493
     0.412893762         0.162892983         0.808745701
     0.412893772         0.662893019         0.808745701
     0.912893855         0.162892983         0.808745701
     0.912893819         0.662893019         0.808745701
     0.375781948         0.125780939         0.294430319
     0.375781964         0.625780928         0.294430319
     0.875781995         0.125780939         0.294430319
     0.875782057         0.625780928         0.294430319
