Image 20 
1.0
       10.0965757370         0.0000000000         0.0000000000
        0.0000000000        10.1536703110         0.0000000000
        0.0000000000         0.0000000000         5.2656521797
   Hf    O
   16   32
Direct
     0.000000000         0.000000000         0.000000000
    -0.000000000         0.500000000         0.000000000
     0.500000000         0.000000000         0.000000000
     0.500000000         0.500000000         0.000000000
     0.233455011         0.000003000         0.499953997
     0.233455011         0.500002959         0.499953997
     0.733455011         0.000003000         0.499953997
     0.733455011         0.500002959         0.499953997
     0.233455011         0.250003006         0.934264027
     0.233455011         0.750002982         0.934264027
     0.733455011         0.250003006         0.934264027
     0.733455011         0.750002982         0.934264027
    -0.000000000         0.250000000         0.434217979
     0.000000000         0.749999977         0.434217979
     0.500000000         0.250000000         0.434217979
     0.500000000         0.749999977         0.434217979
     0.098163500         0.375126997         0.737061995
     0.098163500         0.875126974         0.737061995
     0.598163488         0.375126997         0.737061995
     0.598163488         0.875126974         0.737061995
     0.135363001         0.375030983         0.237096995
     0.135363001         0.875030983         0.237096995
     0.635362978         0.375030983         0.237096995
     0.635362978         0.875030983         0.237096995
     0.098163500         0.125126997         0.697156030
     0.098163500         0.625126997         0.697156030
     0.598163488         0.125126997         0.697156030
     0.598163488         0.625126997         0.697156030
     0.135363001         0.125030995         0.197120985
     0.135363001         0.625031007         0.197120985
     0.635362978         0.125030995         0.197120985
     0.635362978         0.625031007         0.197120985
     0.332964982         0.321745002         0.602110022
     0.332964982         0.821745025         0.602110022
     0.832965005         0.321745002         0.602110022
     0.832965005         0.821745025         0.602110022
     0.400537989         0.321720511         0.102015006
     0.400537989         0.821720511         0.102015006
     0.900537989         0.321720511         0.102015006
     0.900537989         0.821720511         0.102015006
     0.332964982         0.071745002         0.832107007
     0.332964982         0.571745002         0.832107007
     0.832965005         0.071745002         0.832107007
     0.832965005         0.571745002         0.832107007
     0.400537989         0.071720505         0.332202996
     0.400537989         0.571720488         0.332202996
     0.900537989         0.071720505         0.332202996
     0.900537989         0.571720488         0.332202996
