p21c                                    
1.0
       10.2735853195         0.0000000000         0.0000000000
       -0.0000041452        10.3766565323         0.0000000000
       -0.8973757379         0.0000017690         5.2495461007
   Hf    O
   16   32
Direct
     0.499182022         0.499431471         0.000277956
     0.499181991         0.999431471         0.000277956
     0.999181975         0.499431471         0.000277956
     0.999181991         0.999431471         0.000277956
     0.223247155         0.042306107         0.584516652
     0.223247171         0.542306135         0.584516652
     0.723247225         0.042306107         0.584516652
     0.723247194         0.542306135         0.584516652
     0.223247184         0.249432399         0.084516646
     0.223247177         0.749432353         0.084516646
     0.723247184         0.249432399         0.084516646
     0.723247154         0.749432353         0.084516646
     0.499182014         0.292307046         0.500277947
     0.499182031         0.792307000         0.500277947
     0.999182014         0.292307046         0.500277947
     0.999182031         0.792307000         0.500277947
     0.136916124         0.392201778         0.815041663
     0.136916128         0.892201870         0.815041663
     0.636916199         0.392201778         0.815041663
     0.636916169         0.892201870         0.815041663
     0.136916137         0.399536723         0.315041668
     0.136916141         0.899536769         0.315041668
     0.636916218         0.399536723         0.315041668
     0.636916188         0.899536769         0.315041668
     0.085512106         0.149533923         0.769747572
     0.085512104         0.649533911         0.769747572
     0.585512083         0.149533923         0.769747572
     0.585512052         0.649533911         0.769747572
     0.085512616         0.142204571         0.269747623
     0.085512615         0.642204605         0.269747623
     0.585512657         0.142204571         0.269747623
     0.585512626         0.642204605         0.269747623
     0.395059779         0.435707091         0.640042237
     0.395059795         0.935707045         0.640042237
     0.895059872         0.435707091         0.640042237
     0.895059888         0.935707045         0.640042237
     0.395059762         0.356030872         0.140042231
     0.395059778         0.856030826         0.140042231
     0.895059715         0.356030872         0.140042231
     0.895059732         0.856030826         0.140042231
     0.327367694         0.106028127         0.944760851
     0.327367687         0.606028185         0.944760851
     0.827367717         0.106028127         0.944760851
     0.827367640         0.606028185         0.944760851
     0.327367713         0.185710376         0.444761855
     0.327367706         0.685710364         0.444761855
     0.827367667         0.185710376         0.444761855
     0.827367683         0.685710364         0.444761855
