p21c   M3 vo4 O8                        
   1.00000000000000     
    10.5008452079653125    0.0298871420137859    0.0070207677574617
    -1.6801499537633766   10.0791583621433620    0.0371991677168933
     0.0026541677799226    0.0206626793824724    5.1607202034519775
   Hf   O 
    16    31
Direct
 -0.0015564838358861 -0.0033610614098880  0.0014939596205451 
 -0.0000986691609797  0.4954584286344307  0.0019571296757151
  0.4970159904322164 -0.0102625275753822  0.9911157182109926
  0.4901246370378575  0.5035119202573722  0.0307213706758256
  0.2910238446051309  0.2190124507054664  0.0731703128919804
  0.2873711413494140  0.7210784377479498  0.0790572396573509
  0.7890752418688680  0.2204042807818704  0.0831318362702158
  0.7919694661881227  0.7192507156464879  0.0820907943671906
  0.5366554954867696  0.1981052451319141  0.4808969123654204
  0.5411818595523040  0.7193767178380294  0.5034028975588678
  0.0403953979071546  0.2186546581056721  0.4977358435252919
  0.0433696868722106  0.7224771961779157  0.4999762893910156
  0.2457256202707290 -0.0043742581355693  0.5790362531696855
  0.2470468472445372  0.4931480357833750  0.5830093299788647
  0.7515437567470968 -0.0060162185157553  0.5845421273220465
  0.7620031157673619  0.5002754056688407  0.5666395936554824
  0.4053810333943863  0.1313261880557680  0.7724952698323487
  0.4017980268517625  0.6344594468202537  0.7877306170964663
  0.9024552047807679  0.1348498122510440  0.7886554929133288
  0.9051513336458711  0.6340785288245578  0.7825972032635147
  0.1552084997939951  0.1349228397174368  0.7954094347856938
  0.1538228017732352  0.6313501058731303  0.7968078326779255
  0.6517729347549888  0.1341615076008850  0.7940900758422329
  0.3834815319284802  0.0787572909320375  0.2844842845810346
  0.3847874288478245  0.5804606849958875  0.3010733459095414
  0.8842982672297807  0.0819187946646531  0.3007072310776062
  0.8892005261725177  0.5833054811018697  0.2959613752373955
  0.1347016374109340  0.0830958128164961  0.2811056162170170
  0.1355491636151061  0.5815002316105905  0.2829888384461676
  0.6337741082289597  0.0763570498914804  0.2768616020180728
  0.6370295176830179  0.5805180514014568  0.2903236392299519
  0.3466064227146423  0.3825921895972020  0.8252319446182816
  0.3133723397181049  0.8931932006097062  0.8760017108490351
  0.8099876942780267  0.3925288948718628  0.8747465256690050
  0.8116357779838798  0.8916130906070102  0.8833956303543204
  0.0750348363032046  0.3856015056749699  0.7293933978890610
  0.0630534162255617  0.8953619420249216  0.7016791887870282
  0.6440395043192636  0.5991369906038441  0.7947378645303348
  0.5656093670915660  0.8917734484254692  0.6984464698203897
  0.4730115886484063  0.3249328742017561  0.2191629335417026
  0.4757701943863492  0.8167186992176517  0.1995496718252263
  0.9610411449475341  0.3280855681601664  0.2284060893684460
  0.9729132674648969  0.8207497570866306  0.2003909112215942
  0.2166025248906292  0.3292086886130721  0.3433069933792949
  0.2245958457533432  0.8228635617384955  0.3776471096994136
  0.7078785594764091  0.3230321021788209  0.3931544585783456
  0.7276174203536845  0.8161700889881651  0.3898501234037168
 
  0.00000000E+00  0.00000000E+00  0.00000000E+00
  0.00000000E+00  0.00000000E+00  0.00000000E+00
  0.00000000E+00  0.00000000E+00  0.00000000E+00
  0.00000000E+00  0.00000000E+00  0.00000000E+00
  0.00000000E+00  0.00000000E+00  0.00000000E+00
  0.00000000E+00  0.00000000E+00  0.00000000E+00
  0.00000000E+00  0.00000000E+00  0.00000000E+00
  0.00000000E+00  0.00000000E+00  0.00000000E+00
  0.00000000E+00  0.00000000E+00  0.00000000E+00
  0.00000000E+00  0.00000000E+00  0.00000000E+00
  0.00000000E+00  0.00000000E+00  0.00000000E+00
  0.00000000E+00  0.00000000E+00  0.00000000E+00
  0.00000000E+00  0.00000000E+00  0.00000000E+00
  0.00000000E+00  0.00000000E+00  0.00000000E+00
  0.00000000E+00  0.00000000E+00  0.00000000E+00
  0.00000000E+00  0.00000000E+00  0.00000000E+00
  0.00000000E+00  0.00000000E+00  0.00000000E+00
  0.00000000E+00  0.00000000E+00  0.00000000E+00
  0.00000000E+00  0.00000000E+00  0.00000000E+00
  0.00000000E+00  0.00000000E+00  0.00000000E+00
  0.00000000E+00  0.00000000E+00  0.00000000E+00
  0.00000000E+00  0.00000000E+00  0.00000000E+00
  0.00000000E+00  0.00000000E+00  0.00000000E+00
  0.00000000E+00  0.00000000E+00  0.00000000E+00
  0.00000000E+00  0.00000000E+00  0.00000000E+00
  0.00000000E+00  0.00000000E+00  0.00000000E+00
  0.00000000E+00  0.00000000E+00  0.00000000E+00
  0.00000000E+00  0.00000000E+00  0.00000000E+00
  0.00000000E+00  0.00000000E+00  0.00000000E+00
  0.00000000E+00  0.00000000E+00  0.00000000E+00
  0.00000000E+00  0.00000000E+00  0.00000000E+00
  0.00000000E+00  0.00000000E+00  0.00000000E+00
  0.00000000E+00  0.00000000E+00  0.00000000E+00
  0.00000000E+00  0.00000000E+00  0.00000000E+00
  0.00000000E+00  0.00000000E+00  0.00000000E+00
  0.00000000E+00  0.00000000E+00  0.00000000E+00
  0.00000000E+00  0.00000000E+00  0.00000000E+00
  0.00000000E+00  0.00000000E+00  0.00000000E+00
  0.00000000E+00  0.00000000E+00  0.00000000E+00
  0.00000000E+00  0.00000000E+00  0.00000000E+00
  0.00000000E+00  0.00000000E+00  0.00000000E+00
  0.00000000E+00  0.00000000E+00  0.00000000E+00
  0.00000000E+00  0.00000000E+00  0.00000000E+00
  0.00000000E+00  0.00000000E+00  0.00000000E+00
  0.00000000E+00  0.00000000E+00  0.00000000E+00
  0.00000000E+00  0.00000000E+00  0.00000000E+00
  0.00000000E+00  0.00000000E+00  0.00000000E+00
