p21c M3 vo3 O25                         
   1.00000000000000     
    10.5001955806225364    0.0294041777600477   -0.0067057626363270
    -1.6787116488673801   10.0795208099529319   -0.0380358794822970
    -0.0031501821575511   -0.0200698981752370    5.1606836262132942
   Hf   O 
    16    31
Direct
  0.0001892864743003  0.4986141435508950 -0.0004332940087560
 -0.0028625297339096  0.9947749247497303  0.0018999181665366
  0.5039538851297688  0.5191366711021993 -0.0171663904874791
  0.4993397011461449 -0.0020382327510732  0.0052603746726585
  0.2784802388091546  0.2169940748997903  0.0684797748091748
  0.2890531822919878  0.7233106428871043  0.0864020934979143
  0.7934470351603772  0.2241674904209658  0.0848103573413795
  0.7948412207082176  0.7216542139216798  0.0808939591181113
  0.0405894276231652  0.2218059167454957  0.5038684879214311
  0.0421307009962733  0.7206027123619427  0.5033439345943118
  0.5503536022205623  0.2138111590373979  0.5324703139589511
  0.5435564273794040  0.7275813686236178  0.4930185285801589
  0.2515260315974724  0.4968402975816038  0.5849997534579857
  0.2485246854545757 -0.0019899072549255  0.5839403129338440
  0.7495135620966775  0.4982603741633720  0.5749084982039383
  0.7531349915124513  0.9962068254572922  0.5809222157719792
  0.4034532861319940  0.1367826924261119  0.7920756555351705
  0.4068425102453565  0.6408989988197239  0.7787946292526354
  0.9049245700898086  0.1357739834562773  0.7848915271486043
  0.9058895122467923  0.6341748983510715  0.7830104177237009
  0.1512633213783896  0.1339243388225410  0.7978829225820480
  0.1563286856726509  0.6353383195188010  0.8024802578792956
  0.6556821885437778  0.1368468300857387  0.8028838923606924
  0.6571120445076813  0.6384873808884775  0.7863366937294404
  0.3964580542115802  0.1181339365282986  0.2965170232457948
  0.3888465580907535  0.5831147370432236  0.2960431702236043
  0.8866882633499799  0.0859325148193917  0.2987006432423114
  0.8853895681526102  0.5823337442081111  0.2973046017488571
  0.1353386994256131  0.0832020433249103  0.2845093855283292
  0.1381594457123647  0.5824192039884201  0.2904431428290685
  0.6387420674111030  0.0828821123930176  0.2895870026952835
  0.6352255485091841  0.5860762789209576  0.2743289139016384
  0.3327034319944735  0.3942396460057291  0.8951057130404098
  0.3128725629594836  0.9011512495155329  0.8918216406323576
  0.8239759087904779  0.3880372534191595  0.8449012529200154
  0.8158561882886060  0.8944473853692132  0.8796935268331200
  0.0795591140739746  0.3891706994933706  0.7303459206093478
  0.0675506959227162  0.8965194082822738  0.7021558339406402
  0.5675129460616902  0.3923754271492848  0.7209012205926052
  0.5647297563091123  0.9005884963620533  0.7014015890961350
  0.4749618792340848  0.8255654038836346  0.2003271533391123
  0.9654225126995223  0.3316850396347725  0.2313161278652437
  0.9775374131734104  0.8218595915849082  0.2034237048868626
  0.2305046203081775  0.3247089894891176  0.3766318405889932
  0.2289419937628772  0.8256388517784838  0.3853159004214061
  0.6936785630495782  0.3348024937841171  0.3265874886857085
  0.7272458728255755  0.8240676791562165  0.3780500653894167
 
  0.00000000E+00  0.00000000E+00  0.00000000E+00
  0.00000000E+00  0.00000000E+00  0.00000000E+00
  0.00000000E+00  0.00000000E+00  0.00000000E+00
  0.00000000E+00  0.00000000E+00  0.00000000E+00
  0.00000000E+00  0.00000000E+00  0.00000000E+00
  0.00000000E+00  0.00000000E+00  0.00000000E+00
  0.00000000E+00  0.00000000E+00  0.00000000E+00
  0.00000000E+00  0.00000000E+00  0.00000000E+00
  0.00000000E+00  0.00000000E+00  0.00000000E+00
  0.00000000E+00  0.00000000E+00  0.00000000E+00
  0.00000000E+00  0.00000000E+00  0.00000000E+00
  0.00000000E+00  0.00000000E+00  0.00000000E+00
  0.00000000E+00  0.00000000E+00  0.00000000E+00
  0.00000000E+00  0.00000000E+00  0.00000000E+00
  0.00000000E+00  0.00000000E+00  0.00000000E+00
  0.00000000E+00  0.00000000E+00  0.00000000E+00
  0.00000000E+00  0.00000000E+00  0.00000000E+00
  0.00000000E+00  0.00000000E+00  0.00000000E+00
  0.00000000E+00  0.00000000E+00  0.00000000E+00
  0.00000000E+00  0.00000000E+00  0.00000000E+00
  0.00000000E+00  0.00000000E+00  0.00000000E+00
  0.00000000E+00  0.00000000E+00  0.00000000E+00
  0.00000000E+00  0.00000000E+00  0.00000000E+00
  0.00000000E+00  0.00000000E+00  0.00000000E+00
  0.00000000E+00  0.00000000E+00  0.00000000E+00
  0.00000000E+00  0.00000000E+00  0.00000000E+00
  0.00000000E+00  0.00000000E+00  0.00000000E+00
  0.00000000E+00  0.00000000E+00  0.00000000E+00
  0.00000000E+00  0.00000000E+00  0.00000000E+00
  0.00000000E+00  0.00000000E+00  0.00000000E+00
  0.00000000E+00  0.00000000E+00  0.00000000E+00
  0.00000000E+00  0.00000000E+00  0.00000000E+00
  0.00000000E+00  0.00000000E+00  0.00000000E+00
  0.00000000E+00  0.00000000E+00  0.00000000E+00
  0.00000000E+00  0.00000000E+00  0.00000000E+00
  0.00000000E+00  0.00000000E+00  0.00000000E+00
  0.00000000E+00  0.00000000E+00  0.00000000E+00
  0.00000000E+00  0.00000000E+00  0.00000000E+00
  0.00000000E+00  0.00000000E+00  0.00000000E+00
  0.00000000E+00  0.00000000E+00  0.00000000E+00
  0.00000000E+00  0.00000000E+00  0.00000000E+00
  0.00000000E+00  0.00000000E+00  0.00000000E+00
  0.00000000E+00  0.00000000E+00  0.00000000E+00
  0.00000000E+00  0.00000000E+00  0.00000000E+00
  0.00000000E+00  0.00000000E+00  0.00000000E+00
  0.00000000E+00  0.00000000E+00  0.00000000E+00
  0.00000000E+00  0.00000000E+00  0.00000000E+00
