p21c                                    
1.0
       10.6513881683         0.0000000000         0.0000000000
       -1.7310919593        10.1266912635         0.0000000000
        0.0000020726        -0.0000017484         5.1883282661
   Hf    O
   16   32
Direct
     0.000138970         0.499181966         0.998862942
     0.000138972         0.999181947         0.998862942
     0.500138976         0.499181966         0.998862942
     0.500139016         0.999181947         0.998862942
     0.292258307         0.223247151         0.084612211
     0.292258307         0.723247155         0.084612211
     0.792258330         0.223247151         0.084612211
     0.792258307         0.723247155         0.084612211
     0.042258318         0.223247152         0.498864780
     0.042258312         0.723247132         0.498864780
     0.542258339         0.223247152         0.498864780
     0.542258312         0.723247132         0.498864780
     0.250138956         0.499182036         0.584614078
     0.250138944         0.999181969         0.584614078
     0.750139023         0.499182036         0.584614078
     0.750138989         0.999181969         0.584614078
     0.407520814         0.136916114         0.784403559
     0.407520814         0.636916118         0.784403559
     0.907520859         0.136916114         0.784403559
     0.907520926         0.636916118         0.784403559
     0.157520838         0.136916140         0.799073461
     0.157520834         0.636916120         0.799073461
     0.657520815         0.136916140         0.799073461
     0.657520789         0.636916120         0.799073461
     0.384873795         0.085512105         0.299067855
     0.384873787         0.585512061         0.299067855
     0.884873862         0.085512105         0.299067855
     0.884873832         0.585512061         0.299067855
     0.134873813         0.085512614         0.284409142
     0.134873803         0.585512624         0.284409142
     0.634873768         0.085512614         0.284409142
     0.634873747         0.585512624         0.284409142
     0.320021133         0.395059797         0.871414217
     0.320021118         0.895059777         0.871414217
     0.820021178         0.395059797         0.871414217
     0.820021152         0.895059777         0.871414217
     0.070021106         0.395059722         0.712061746
     0.070021117         0.895059749         0.712061746
     0.570021107         0.395059722         0.712061746
     0.570021089         0.895059749         0.712061746
     0.472380426         0.327367672         0.212056255
     0.472380440         0.827367629         0.212056255
     0.972380291         0.327367672         0.212056255
     0.972380351         0.827367629         0.212056255
     0.222380910         0.327367676         0.371420742
     0.222380897         0.827367562         0.371420742
     0.722380933         0.327367676         0.371420742
     0.722380936         0.827367562         0.371420742
