&control
  calculation ='nscf'
  restart_mode ='from_scratch',
  prefix       ='ZnO',
  outdir='./temp'
  pseudo_dir='./GBRV_PBEsol'
  disk_io='low'
  etot_conv_thr=1.D-7,
  forc_conv_thr=1.D-6,
  verbosity    ='high',
!  tprnfor=.t.
!  tstress=.t.
  nstep=200
nppstr=8
gdir = 3
lberry=.true.
!  tefield = .true.
!  dipfield = .true.

 /
&system
  nosym = .true.,
  ibrav= 0,
  nat=  72,
  ntyp= 3,
  tot_charge = 0.0
  ecutwfc =  60,
  ecutrho = 500,
!  occupations='smearing', smearing='mv', degauss=0.001,
!  eamp = 0.0
!  edir = 3
!  emaxpos = 0.1
!  eopreg = 0.05

!  input_dft='hse', nqx1=2, nqx2=2, nqx3=1,
!  x_gamma_extrapolation = .true.
!  vdw_corr = DFT-D3
/

&electrons
    mixing_mode = 'plain'
    mixing_beta = 0.5,
    conv_thr =  1.0d-8
!   Startingpot = 'file'
!   Startingwfc = 'file'
/

&IONS
  upscale           = 100.D0,
/

&CELL
  cell_dynamics     = 'bfgs'
  press_conv_thr    = 0.5d0
  cell_dofree = 'all'
/

ATOMIC_SPECIES
Zn 65.38   zn_pbesol_v1.uspp.F.UPF
O  15.999  o_pbesol_v1.2.uspp.F.UPF
Mg 24.305   mg_pbesol_v1.4.uspp.F.UPF

K_POINTS {automatic}
4 4 8 0 0 0 

CELL_PARAMETERS (angstrom)
   9.748833799  -0.009047917  -0.000288781
  -4.882236168   8.442786028   0.002521343
  -0.000314651   0.002939158  10.47522085295

ATOMIC_POSITIONS (crystal)
Zn       0.222534904   0.111536116   0.193836334
Zn       0.222444715   0.110781782   0.693447297
Zn       0.223138549   0.443890614   0.192998627
Zn       0.222159254   0.445768380   0.693415544
Zn       0.224509889   0.781313511   0.192596268
Zn       0.220684370   0.775981002   0.692594392
Zn       0.554325346   0.110267613   0.194334010
Zn       0.556047550   0.111671547   0.694791183
Zn       0.555337271   0.444134185   0.192289255
Mg       0.554819082   0.442344367   0.694448396
Mg       0.555296471   0.780342662   0.193218494
Zn       0.555558800   0.776198215   0.691573073
Zn       0.888890072   0.110696225   0.193112867
Mg       0.887136764   0.110040688   0.695335979
Zn       0.887082072   0.443520570   0.192847538
Mg       0.889054176   0.444562768   0.694424486
Mg       0.888914671   0.778013436   0.192254716
Mg       0.886796364   0.776137967   0.693235479
Zn       0.109998721   0.222433067   0.444616600
Zn       0.113324784   0.224169131   0.943775101
Zn       0.110766234   0.555912439   0.442319076
Mg       0.112208970   0.555441530   0.945853050
Mg       0.110926030   0.888998207   0.443126472
Mg       0.113570394   0.891168940   0.942452020
Zn       0.446024214   0.223996177   0.444570592
Zn       0.444957915   0.221936182   0.944623843
Mg       0.444384031   0.553407697   0.442603967
Mg       0.444840493   0.555873565   0.942971971
Mg       0.445087749   0.890213951   0.446056009
Zn       0.444957264   0.888116517   0.942523454
Zn       0.778859675   0.223344459   0.443342321
Zn       0.776534020   0.221871337   0.943429185
Zn       0.776740140   0.554263025   0.442716918
Zn       0.778303283   0.555914571   0.941753316
Zn       0.777913310   0.889018926   0.442203577
Zn       0.776108265   0.887248900   0.942371474
O        0.222615418   0.111831974   0.004145610
O        0.222222224   0.111318278   0.503262580
O        0.223717493   0.445547047   0.003466975
O        0.222204220   0.445186450   0.503173312
O        0.222374778   0.778412695   0.002694462
O        0.222024361   0.778399224   0.502871060
O        0.554912830   0.109881451   0.004423791
O        0.556325953   0.112283870   0.504517969
O        0.556012102   0.445084200   0.002063614
O        0.555491632   0.444756560   0.505320212
O        0.554850243   0.776992410   0.004226085
O        0.554455858   0.776319529   0.501142578
O        0.889088814   0.110934517   0.002453160
O        0.887999279   0.110602945   0.505448669
O        0.889005710   0.444611329   0.002690415
O        0.889369660   0.445022069   0.504631627
O        0.890677967   0.778718379   0.002508411
O        0.888993565   0.777783194   0.503203262
O        0.110943398   0.222250643   0.254345561
O        0.110669534   0.221992578   0.753369919
O        0.111374248   0.556243693   0.251604942
O        0.110333061   0.554921165   0.756084751
O        0.110309051   0.888855028   0.253444603
O        0.109458669   0.887732423   0.752824185
O        0.444786879   0.222799179   0.254213435
O        0.443838545   0.220992740   0.754729403
O        0.445921561   0.557283795   0.252920099
O        0.444759271   0.554383974   0.753398237
O        0.444670535   0.889344291   0.256472940
O        0.444302817   0.887734649   0.751979105
O        0.777735007   0.221740310   0.253541564
O        0.778388367   0.222742357   0.753747646
O        0.777750927   0.555956095   0.252906279
O        0.777245106   0.554600270   0.751928174
O        0.777563148   0.888286728   0.252159104
O        0.777371954   0.887923691   0.752713381

