p42nmc 1a=5.25 O1 O2                    
   1.00000000000000     
    10.1465549469000003    0.0000000000000000    0.0000000000000000
     0.0000297243000000   10.1466093063000002    0.0000000000000000
     0.0000167826000000    0.0000517463000000   10.4487000000000005
   Hf   O 
    32    62
Direct
 -0.0072045110037099  0.2488816715110667  0.2483228379137560
 -0.0072077339261441  0.2488791422252714  0.7483210261357238
 -0.0021988880544494  0.7600483429511575  0.2492067970874558
 -0.0022037126852924  0.7600536951386209  0.7492106218284270
  0.5105829333284153  0.2472691135428072  0.2417288135334764
  0.5105838336224843  0.2472680358570246  0.7417234613042520
  0.5089712049631127  0.7650560081955288  0.2483189728994870
  0.5089738519465911  0.7650597045352848  0.7483163751861855
  0.2410704634764705  0.0006186630027487  0.2483376220904119
  0.2410657368036834  0.0006174117514492  0.7483375118558409
  0.2394648578949986  0.5183856799445412  0.2417436088626041
  0.2394631778037417  0.5183871710513948  0.7417396424281042
  0.7522478708971364  0.0056014320085734  0.2492108580610106
  0.7522517882957610  0.0055982055170268  0.7492148596016840
  0.7572289654519813  0.5167836214434209  0.2483373625657939
  0.7572306028530885  0.5167884448782797  0.7483365831852663
  0.2432737486904245  0.2510796426492261  0.5187806938567263
  0.2432738964541729  0.2510808963318698  0.0187847227324977
  0.2543211335417868  0.7530163992876258  0.4963680854485559
  0.2543203309752415  0.7530163126204283 -0.0036328742871346
  0.7452152466026353  0.2621234015116230  0.4963578674129845
  0.7452133850639655  0.2621238284117158 -0.0036428907322990
  0.7523068697822873  0.7601211636543463  0.4950363008382869
  0.7523051612640471  0.7601217507251499  0.9950334347513466
 -0.0022647383875600  0.0055415236792120  0.4950345383261432
 -0.0022658846808823  0.0055425507870536  0.9950325199321750
  0.0048310746592257  0.5035345543693629  0.4963656428374532
  0.0048308082223428  0.5035351865751818 -0.0036348936709771
  0.4957270918536349  0.0126397982179432  0.4963538471248983
  0.4957263299795673  0.0126413314425608 -0.0036466527704076
  0.5067703713476268  0.5145730037731605  0.5187804307078454
  0.5067692868984557  0.5145729425625393  0.0187841666275642
  0.3750277592627811  0.8828369242397761  0.3473060196115232
  0.3750265175914761  0.8828366822965226  0.8473078142260749
  0.8750144915647480  0.3828276603068381  0.3473070442146902
  0.8750142694131298  0.3828287026262029  0.8473088415114393
  0.8750293566513182  0.8828286399811971  0.3507652740542994
  0.8750284146495652  0.8828293784531019  0.8507677554277373
  0.3686937294875564  0.1276451881385311  0.1519131647626883
  0.3686931974199024  0.1276433723279015  0.6519134325112329
  0.3813532604097365  0.6380025965744660  0.1519266657909495
  0.3813538939922034  0.6380016547435428  0.6519274103027691
  0.8654773975921358  0.1352762369021135  0.1460223276726060
  0.8654763265565976  0.1352771796516226  0.6460226598569458
  0.8845697519258932  0.6303625016535394  0.1460342136516372
  0.8845696641137206  0.6303625658388344  0.6460346855582009
  0.3851408021235898  0.1665258770677995  0.4021201500269886
  0.3851401131722593  0.1665250558468277  0.9021183859502636
  0.3648956487952010  0.5991232538226042  0.4021346299689169
  0.3648943867475718  0.5991239710309981  0.9021335781552529
  0.8755178917002102  0.1343199204306753  0.3981047265546494
  0.8755151460374243  0.1343204645637111  0.8981036179416069
  0.8745235862003944  0.6313327070323910  0.3981144602930649
  0.8745248159563382  0.6313339898715972  0.8981134607642628
  0.3750277853013006  0.3828253216322203  0.1221959865269276
  0.3750284101630408  0.3828243036355359  0.6221872221544551
  0.3750418508133314  0.8828166466312636  0.0926806545701795
  0.3750445533914008  0.8828141269531775  0.5926825128095721
  0.8750387814063639  0.3828114310901524  0.0926814914212940
  0.8750400936915516  0.3828108529496758  0.5926833411055320
  0.8750343244386911  0.8828204030017548  0.1002687561299933
  0.8750355929612685  0.8828203482274616  0.6002704981716837
  0.1258816271325279  0.1336943403160548  0.3556922231288618
  0.1258816196135273  0.1336960089387736  0.8556932452843826
  0.1203636382241429  0.6374926710293812  0.3482413023110014
  0.1203655150509246  0.6374907030889897  0.8482382286941479
  0.6296847719322963  0.1281682800191274  0.3482306507224752
  0.6296816283985566  0.1281713728677666  0.8482278698484730
  0.6241556067001091  0.6319759329361077  0.3556887254972416
  0.6241537030746126  0.6319757420871297  0.8556895542537469
  0.1198538666974301  0.3764957356526346  0.1519283853598480
  0.1198542396389061  0.3764950381905130  0.6519288531244742
  0.1274925035032800  0.8732790332167353  0.1460354585029466
  0.1274941275969839  0.8732785306877591  0.6460360421202092
  0.6302093839993251  0.3891541015815248  0.1519146266312011
  0.6302104959728820  0.3891548070307070  0.6519152073870825
  0.6225814950485931  0.8923681657969934  0.1460169593345690
  0.6225821235214161  0.8923690160352371  0.6460172352655962
  0.1587190285330450  0.3929538321915565  0.4021342488548624
  0.1587176738210111  0.3929547030301261  0.9021330971212896
  0.1265265386263489  0.8833283568273927  0.3981172663953923
  0.1265248672393312  0.8833269645137146  0.8981163505506204
  0.5913246372783636  0.3727084366923044  0.4021214925457313
  0.5913248567022468  0.3727086383197936  0.9021199171084479
  0.6235324789853299  0.8823399808141023  0.3981003499455548
  0.6235314458126313  0.8823425931149025  0.8980991734241465
  0.1169616158912477  0.1247685719810745  0.1075851769683248
  0.1169573951684589  0.1247645430091540  0.6075884201107884
  0.1352611584920871  0.6225882770537268  0.0982946328522652
  0.1352622897086455  0.6225870684393775  0.5982952529898063
  0.6147824887458124  0.1430672430468775  0.0982825309058101
  0.6147812095908559  0.1430686669937710  0.5982830157308562
  0.6330835239306924  0.6408820887033853  0.1075806426254495
  0.6330873349028110  0.6408864071180230  0.6075835990318165
 
  0.00000000E+00  0.00000000E+00  0.00000000E+00
  0.00000000E+00  0.00000000E+00  0.00000000E+00
  0.00000000E+00  0.00000000E+00  0.00000000E+00
  0.00000000E+00  0.00000000E+00  0.00000000E+00
  0.00000000E+00  0.00000000E+00  0.00000000E+00
  0.00000000E+00  0.00000000E+00  0.00000000E+00
  0.00000000E+00  0.00000000E+00  0.00000000E+00
  0.00000000E+00  0.00000000E+00  0.00000000E+00
  0.00000000E+00  0.00000000E+00  0.00000000E+00
  0.00000000E+00  0.00000000E+00  0.00000000E+00
  0.00000000E+00  0.00000000E+00  0.00000000E+00
  0.00000000E+00  0.00000000E+00  0.00000000E+00
  0.00000000E+00  0.00000000E+00  0.00000000E+00
  0.00000000E+00  0.00000000E+00  0.00000000E+00
  0.00000000E+00  0.00000000E+00  0.00000000E+00
  0.00000000E+00  0.00000000E+00  0.00000000E+00
  0.00000000E+00  0.00000000E+00  0.00000000E+00
  0.00000000E+00  0.00000000E+00  0.00000000E+00
  0.00000000E+00  0.00000000E+00  0.00000000E+00
  0.00000000E+00  0.00000000E+00  0.00000000E+00
  0.00000000E+00  0.00000000E+00  0.00000000E+00
  0.00000000E+00  0.00000000E+00  0.00000000E+00
  0.00000000E+00  0.00000000E+00  0.00000000E+00
  0.00000000E+00  0.00000000E+00  0.00000000E+00
  0.00000000E+00  0.00000000E+00  0.00000000E+00
  0.00000000E+00  0.00000000E+00  0.00000000E+00
  0.00000000E+00  0.00000000E+00  0.00000000E+00
  0.00000000E+00  0.00000000E+00  0.00000000E+00
  0.00000000E+00  0.00000000E+00  0.00000000E+00
  0.00000000E+00  0.00000000E+00  0.00000000E+00
  0.00000000E+00  0.00000000E+00  0.00000000E+00
  0.00000000E+00  0.00000000E+00  0.00000000E+00
  0.00000000E+00  0.00000000E+00  0.00000000E+00
  0.00000000E+00  0.00000000E+00  0.00000000E+00
  0.00000000E+00  0.00000000E+00  0.00000000E+00
  0.00000000E+00  0.00000000E+00  0.00000000E+00
  0.00000000E+00  0.00000000E+00  0.00000000E+00
  0.00000000E+00  0.00000000E+00  0.00000000E+00
  0.00000000E+00  0.00000000E+00  0.00000000E+00
  0.00000000E+00  0.00000000E+00  0.00000000E+00
  0.00000000E+00  0.00000000E+00  0.00000000E+00
  0.00000000E+00  0.00000000E+00  0.00000000E+00
  0.00000000E+00  0.00000000E+00  0.00000000E+00
  0.00000000E+00  0.00000000E+00  0.00000000E+00
  0.00000000E+00  0.00000000E+00  0.00000000E+00
  0.00000000E+00  0.00000000E+00  0.00000000E+00
  0.00000000E+00  0.00000000E+00  0.00000000E+00
  0.00000000E+00  0.00000000E+00  0.00000000E+00
  0.00000000E+00  0.00000000E+00  0.00000000E+00
  0.00000000E+00  0.00000000E+00  0.00000000E+00
  0.00000000E+00  0.00000000E+00  0.00000000E+00
  0.00000000E+00  0.00000000E+00  0.00000000E+00
  0.00000000E+00  0.00000000E+00  0.00000000E+00
  0.00000000E+00  0.00000000E+00  0.00000000E+00
  0.00000000E+00  0.00000000E+00  0.00000000E+00
  0.00000000E+00  0.00000000E+00  0.00000000E+00
  0.00000000E+00  0.00000000E+00  0.00000000E+00
  0.00000000E+00  0.00000000E+00  0.00000000E+00
  0.00000000E+00  0.00000000E+00  0.00000000E+00
  0.00000000E+00  0.00000000E+00  0.00000000E+00
  0.00000000E+00  0.00000000E+00  0.00000000E+00
  0.00000000E+00  0.00000000E+00  0.00000000E+00
  0.00000000E+00  0.00000000E+00  0.00000000E+00
  0.00000000E+00  0.00000000E+00  0.00000000E+00
  0.00000000E+00  0.00000000E+00  0.00000000E+00
  0.00000000E+00  0.00000000E+00  0.00000000E+00
  0.00000000E+00  0.00000000E+00  0.00000000E+00
  0.00000000E+00  0.00000000E+00  0.00000000E+00
  0.00000000E+00  0.00000000E+00  0.00000000E+00
  0.00000000E+00  0.00000000E+00  0.00000000E+00
  0.00000000E+00  0.00000000E+00  0.00000000E+00
  0.00000000E+00  0.00000000E+00  0.00000000E+00
  0.00000000E+00  0.00000000E+00  0.00000000E+00
  0.00000000E+00  0.00000000E+00  0.00000000E+00
  0.00000000E+00  0.00000000E+00  0.00000000E+00
  0.00000000E+00  0.00000000E+00  0.00000000E+00
  0.00000000E+00  0.00000000E+00  0.00000000E+00
  0.00000000E+00  0.00000000E+00  0.00000000E+00
  0.00000000E+00  0.00000000E+00  0.00000000E+00
  0.00000000E+00  0.00000000E+00  0.00000000E+00
  0.00000000E+00  0.00000000E+00  0.00000000E+00
  0.00000000E+00  0.00000000E+00  0.00000000E+00
  0.00000000E+00  0.00000000E+00  0.00000000E+00
  0.00000000E+00  0.00000000E+00  0.00000000E+00
  0.00000000E+00  0.00000000E+00  0.00000000E+00
  0.00000000E+00  0.00000000E+00  0.00000000E+00
  0.00000000E+00  0.00000000E+00  0.00000000E+00
  0.00000000E+00  0.00000000E+00  0.00000000E+00
  0.00000000E+00  0.00000000E+00  0.00000000E+00
  0.00000000E+00  0.00000000E+00  0.00000000E+00
  0.00000000E+00  0.00000000E+00  0.00000000E+00
  0.00000000E+00  0.00000000E+00  0.00000000E+00
  0.00000000E+00  0.00000000E+00  0.00000000E+00
  0.00000000E+00  0.00000000E+00  0.00000000E+00
