p42nmc 1a=5.07 O2 O6                    
   1.00000000000000     
    10.1465549469000003    0.0000000000000000    0.0000000000000000
     0.0000297243000000   10.1466093063000002    0.0000000000000000
     0.0000167826000000    0.0000517463000000   10.4487000000000005
   Hf   O 
    32    62
Direct
  0.9962938611050109  0.2547388305854901  0.2488783661009061
  0.0192537619299327  0.2404232612340846  0.7436106998425074
  0.0051192753460772  0.7598249828059809  0.2535585601389181
  0.9980060637706101  0.7649774967635838  0.7411263608379842
  0.4962938941050097  0.2547388305854901  0.2488783661009061
  0.5192537669299367  0.2404232612340846  0.7436106998425074
  0.5051193003460753  0.7598249828059809  0.2535585601389181
  0.4980060607706137  0.7649774967635838  0.7411263608379842
  0.2447666548366959  0.0059836840940674  0.2537205499990253
  0.2521303113309569  0.0006631503952445  0.7411296509242900
  0.2535967887011850  0.5110222215001677  0.2491292464718076
  0.2308227367233992  0.5251675510267477  0.7435548956647406
  0.7447665838367007  0.0059836840940674  0.2537205499990253
  0.7521302173309564  0.0006631503952445  0.7411296509242900
  0.7535967647011904  0.5110222215001677  0.2491292464718076
  0.7308226897233988  0.5251675510267477  0.7435548956647406
  0.2522753175625225  0.2652092351704628  0.5023658726146484
  0.2415936459012553  0.2508023340600282  0.0101506144386031
  0.2522209265221251  0.7553320300930566  0.4949840663616912
  0.2508481332497465  0.7588067052404851  0.9978826262245778
  0.7522753645625232  0.2652092351704628  0.5023658726146484
  0.7415936699012645  0.2508023340600282  0.0101506144386031
  0.7522209735221252  0.7553320300930566  0.4949840663616912
  0.7508481572497487  0.7588067052404851  0.9978826262245778
  0.9977265436788220  0.0104568578084427  0.4949969214143048
  0.9992677484078298  0.0067223077325146  0.9978872554943969
  0.9976462810289005  0.5005377469024391  0.5024321996356699
  0.0084982453409708  0.5147899266535673  0.0101734801259877
  0.4977265246788240  0.0104568578084427  0.4949969214143048
  0.4992677014078293  0.0067223077325146  0.9978872554943969
  0.4976463020289059  0.5005377469024391  0.5024321996356699
  0.5084982373409700  0.5147899266535673  0.0101734801259877
  0.3750725684861316  0.3828339402999733  0.3554033950114885
  0.3749782497053248  0.8828509385541203  0.3485197663406445
  0.3750603988509424  0.8828192958040588  0.8497997045117811
  0.8750725684861319  0.3828339402999733  0.3554033950114885
  0.8749782967053251  0.8828509385541203  0.3485197663406445
  0.8750604458509427  0.8828192958040588  0.8497997045117811
  0.3614066353516618  0.1355761535159740  0.1513661539176766
  0.3839855897497733  0.1254708868652273  0.6508331712790417
  0.3886880415613527  0.6298523961014739  0.1514360958664561
  0.3661024960957368  0.6401988028102941  0.6508634071345843
  0.8614066823516625  0.1355761535159740  0.1513661539176766
  0.8839856607497686  0.1254708868652273  0.6508331712790417
  0.8886881355613534  0.6298523961014739  0.1514360958664561
  0.8661026140957325  0.6401988028102941  0.6508634071345843
  0.3687088916838182  0.1336276681636194  0.4017234404781519
  0.3964858932189793  0.1678563843793684  0.9013497385403605
  0.3811723100896304  0.6320338967782095  0.4017592194217655
  0.3535389903256071  0.5976540613531801  0.9013948071610136
  0.8687089386838189  0.1336276681636194  0.4017234404781519
  0.8964859402189725  0.1678563843793684  0.9013497385403605
  0.8811724040896310  0.6320338967782095  0.4017592194217655
  0.8535390843256077  0.5976540613531801  0.9013948071610136
  0.3751616454802745  0.3826665210254909  0.0866630235241951
  0.3749290294607862  0.3828625834256283  0.6221365498341002
  0.3751676592550440  0.8826450515392279  0.0958292357575419
  0.3750501458623012  0.8828395684267353  0.5963302968052958
  0.8751617154802733  0.3826665210254909  0.0866630235241951
  0.8749290294607863  0.3828625834256283  0.6221365498341002
  0.8751677762550500  0.8826450515392279  0.0958292357575419
  0.8750501928623019  0.8828395684267353  0.5963302968052958
  0.1173865032297454  0.1310662695369016  0.3515210233652149
  0.1444587624578582  0.1291159410356054  0.8532235282235556
  0.1325628261855600  0.6348892075915834  0.3514940566416264
  0.1055703548873107  0.6364341775716771  0.8532118781271831
  0.6173864802297470  0.1310662695369016  0.3515210233652149
  0.6444587624578582  0.1291159410356054  0.8532235282235556
  0.6325627911855604  0.6348892075915834  0.3514940566416264
  0.6055703438873061  0.6364341775716771  0.8532118781271831
  0.1251018087508413  0.3828161989231258  0.1518028652337059
  0.1249267783536567  0.3828336011467174  0.6459644416730034
  0.1250962517644265  0.8828439218692765  0.1454991480207397
  0.1250694610819354  0.8828143700793062  0.6445069502552149
  0.6251018087508414  0.3828161989231258  0.1518028652337059
  0.6249268013536621  0.3828336011467174  0.6459644416730034
  0.6250962397644255  0.8828439218692765  0.1454991480207397
  0.6250694720819397  0.8828143700793062  0.6445069502552149
  0.1251184837731186  0.3830420515692510  0.4013302899889039
  0.1250625723748779  0.3827792075712342  0.8945053689456642
  0.1249982494197267  0.8829507513814325  0.3979996371394305
  0.1250626671502880  0.8827721953777738  0.8967897635507047
  0.6251184717731176  0.3830420515692510  0.4013302899889039
  0.6250625843748787  0.3827792075712342  0.8945053689456642
  0.6249982254197247  0.8829507513814325  0.3979996371394305
  0.6250626671502879  0.8827721953777738  0.8967897635507047
  0.1120174453460597  0.1333178674756017  0.1045093299986688
  0.1296116485082499  0.1335256273765852  0.6029859435683931
  0.1380505638100914  0.6323177355684065  0.1045151316871405
  0.1204659982928292  0.6321366188165606  0.6029724657066683
  0.6120174453460597  0.1333178674756017  0.1045093299986688
  0.6296116715082481  0.1335256273765852  0.6029859435683931
  0.6380505528100942  0.6323177355684065  0.1045151316871405
  0.6204660102928299  0.6321366188165606  0.6029724657066683
 
  0.00000000E+00  0.00000000E+00  0.00000000E+00
  0.00000000E+00  0.00000000E+00  0.00000000E+00
  0.00000000E+00  0.00000000E+00  0.00000000E+00
  0.00000000E+00  0.00000000E+00  0.00000000E+00
  0.00000000E+00  0.00000000E+00  0.00000000E+00
  0.00000000E+00  0.00000000E+00  0.00000000E+00
  0.00000000E+00  0.00000000E+00  0.00000000E+00
  0.00000000E+00  0.00000000E+00  0.00000000E+00
  0.00000000E+00  0.00000000E+00  0.00000000E+00
  0.00000000E+00  0.00000000E+00  0.00000000E+00
  0.00000000E+00  0.00000000E+00  0.00000000E+00
  0.00000000E+00  0.00000000E+00  0.00000000E+00
  0.00000000E+00  0.00000000E+00  0.00000000E+00
  0.00000000E+00  0.00000000E+00  0.00000000E+00
  0.00000000E+00  0.00000000E+00  0.00000000E+00
  0.00000000E+00  0.00000000E+00  0.00000000E+00
  0.00000000E+00  0.00000000E+00  0.00000000E+00
  0.00000000E+00  0.00000000E+00  0.00000000E+00
  0.00000000E+00  0.00000000E+00  0.00000000E+00
  0.00000000E+00  0.00000000E+00  0.00000000E+00
  0.00000000E+00  0.00000000E+00  0.00000000E+00
  0.00000000E+00  0.00000000E+00  0.00000000E+00
  0.00000000E+00  0.00000000E+00  0.00000000E+00
  0.00000000E+00  0.00000000E+00  0.00000000E+00
  0.00000000E+00  0.00000000E+00  0.00000000E+00
  0.00000000E+00  0.00000000E+00  0.00000000E+00
  0.00000000E+00  0.00000000E+00  0.00000000E+00
  0.00000000E+00  0.00000000E+00  0.00000000E+00
  0.00000000E+00  0.00000000E+00  0.00000000E+00
  0.00000000E+00  0.00000000E+00  0.00000000E+00
  0.00000000E+00  0.00000000E+00  0.00000000E+00
  0.00000000E+00  0.00000000E+00  0.00000000E+00
  0.00000000E+00  0.00000000E+00  0.00000000E+00
  0.00000000E+00  0.00000000E+00  0.00000000E+00
  0.00000000E+00  0.00000000E+00  0.00000000E+00
  0.00000000E+00  0.00000000E+00  0.00000000E+00
  0.00000000E+00  0.00000000E+00  0.00000000E+00
  0.00000000E+00  0.00000000E+00  0.00000000E+00
  0.00000000E+00  0.00000000E+00  0.00000000E+00
  0.00000000E+00  0.00000000E+00  0.00000000E+00
  0.00000000E+00  0.00000000E+00  0.00000000E+00
  0.00000000E+00  0.00000000E+00  0.00000000E+00
  0.00000000E+00  0.00000000E+00  0.00000000E+00
  0.00000000E+00  0.00000000E+00  0.00000000E+00
  0.00000000E+00  0.00000000E+00  0.00000000E+00
  0.00000000E+00  0.00000000E+00  0.00000000E+00
  0.00000000E+00  0.00000000E+00  0.00000000E+00
  0.00000000E+00  0.00000000E+00  0.00000000E+00
  0.00000000E+00  0.00000000E+00  0.00000000E+00
  0.00000000E+00  0.00000000E+00  0.00000000E+00
  0.00000000E+00  0.00000000E+00  0.00000000E+00
  0.00000000E+00  0.00000000E+00  0.00000000E+00
  0.00000000E+00  0.00000000E+00  0.00000000E+00
  0.00000000E+00  0.00000000E+00  0.00000000E+00
  0.00000000E+00  0.00000000E+00  0.00000000E+00
  0.00000000E+00  0.00000000E+00  0.00000000E+00
  0.00000000E+00  0.00000000E+00  0.00000000E+00
  0.00000000E+00  0.00000000E+00  0.00000000E+00
  0.00000000E+00  0.00000000E+00  0.00000000E+00
  0.00000000E+00  0.00000000E+00  0.00000000E+00
  0.00000000E+00  0.00000000E+00  0.00000000E+00
  0.00000000E+00  0.00000000E+00  0.00000000E+00
  0.00000000E+00  0.00000000E+00  0.00000000E+00
  0.00000000E+00  0.00000000E+00  0.00000000E+00
  0.00000000E+00  0.00000000E+00  0.00000000E+00
  0.00000000E+00  0.00000000E+00  0.00000000E+00
  0.00000000E+00  0.00000000E+00  0.00000000E+00
  0.00000000E+00  0.00000000E+00  0.00000000E+00
  0.00000000E+00  0.00000000E+00  0.00000000E+00
  0.00000000E+00  0.00000000E+00  0.00000000E+00
  0.00000000E+00  0.00000000E+00  0.00000000E+00
  0.00000000E+00  0.00000000E+00  0.00000000E+00
  0.00000000E+00  0.00000000E+00  0.00000000E+00
  0.00000000E+00  0.00000000E+00  0.00000000E+00
  0.00000000E+00  0.00000000E+00  0.00000000E+00
  0.00000000E+00  0.00000000E+00  0.00000000E+00
  0.00000000E+00  0.00000000E+00  0.00000000E+00
  0.00000000E+00  0.00000000E+00  0.00000000E+00
  0.00000000E+00  0.00000000E+00  0.00000000E+00
  0.00000000E+00  0.00000000E+00  0.00000000E+00
  0.00000000E+00  0.00000000E+00  0.00000000E+00
  0.00000000E+00  0.00000000E+00  0.00000000E+00
  0.00000000E+00  0.00000000E+00  0.00000000E+00
  0.00000000E+00  0.00000000E+00  0.00000000E+00
  0.00000000E+00  0.00000000E+00  0.00000000E+00
  0.00000000E+00  0.00000000E+00  0.00000000E+00
  0.00000000E+00  0.00000000E+00  0.00000000E+00
  0.00000000E+00  0.00000000E+00  0.00000000E+00
  0.00000000E+00  0.00000000E+00  0.00000000E+00
  0.00000000E+00  0.00000000E+00  0.00000000E+00
  0.00000000E+00  0.00000000E+00  0.00000000E+00
  0.00000000E+00  0.00000000E+00  0.00000000E+00
  0.00000000E+00  0.00000000E+00  0.00000000E+00
  0.00000000E+00  0.00000000E+00  0.00000000E+00
