&control
  calculation ='relax'
  restart_mode ='from_scratch',
  prefix       ='ZnO',
  outdir='./temp'
  pseudo_dir='./GBRV_PBEsol'
  disk_io='low'
  etot_conv_thr=1.D-7,
  forc_conv_thr=1.D-6,
  verbosity    ='high',
  tprnfor=.t.
  tstress=.t.
  nstep=200
!  tefield = .true.
!  dipfield = .true.

 /
&system
  nosym = .true.,
  ibrav= 0,
  nat=  72,
  ntyp= 3,
  tot_charge = 0.0
  ecutwfc =  60,
  ecutrho = 500,
  occupations='smearing', smearing='mv', degauss=0.001,
!  eamp = 0.0
!  edir = 3
!  emaxpos = 0.1
!  eopreg = 0.05

!  input_dft='hse', nqx1=2, nqx2=2, nqx3=1,
!  x_gamma_extrapolation = .true.
!  vdw_corr = DFT-D3
/

&electrons
    mixing_mode = 'plain'
    mixing_beta = 0.5,
    conv_thr =  1.0d-8
!   Startingpot = 'file'
!   Startingwfc = 'file'
/

&IONS
  upscale           = 100.D0,
/

&CELL
  cell_dynamics     = 'bfgs'
  press_conv_thr    = 0.5d0
  cell_dofree = 'all'
/

ATOMIC_SPECIES
Zn 65.38   zn_pbesol_v1.uspp.F.UPF
O  15.999  o_pbesol_v1.2.uspp.F.UPF
Mg 24.305   mg_pbesol_v1.4.uspp.F.UPF

K_POINTS {automatic}
4 4 4 0 0 0 

CELL_PARAMETERS (angstrom)
   9.748833799  -0.009047917  -0.000288781
  -4.882236168   8.442786028   0.002521343
  -0.000314651   0.002939158  10.371505795

ATOMIC_POSITIONS (crystal)
Zn       0.222443825   0.111492687   0.194566620
Zn       0.222410739   0.110803021   0.693997897
Zn       0.223202502   0.443863338   0.193734980
Zn       0.222088818   0.445791925   0.694029580
Zn       0.224624900   0.781448177   0.193268253
Zn       0.220437039   0.775800783   0.693329474
Zn       0.554320419   0.110175309   0.195055865
Zn       0.556163250   0.111805934   0.695331490
Zn       0.555381276   0.444197638   0.192744078
Mg       0.554919836   0.442330136   0.695233799
Mg       0.555343080   0.780420447   0.194071730
Zn       0.555675595   0.776133607   0.692000255
Zn       0.888877646   0.110642805   0.193523225
Mg       0.887115631   0.110007897   0.696081564
Zn       0.886966714   0.443506633   0.193416528
Mg       0.889091015   0.444592589   0.695060795
Mg       0.888805523   0.777952233   0.192919411
Mg       0.886698886   0.776086262   0.693770467
Zn       0.109962709   0.222415394   0.445355799
Zn       0.113450161   0.224248405   0.944291912
Zn       0.110801296   0.555992561   0.442721805
Mg       0.112328842   0.555540524   0.946685586
Mg       0.111033432   0.889021001   0.443755208
Mg       0.113630512   0.891176309   0.943022169
Zn       0.446035545   0.224056053   0.445152520
Zn       0.444882364   0.221833814   0.945289754
Mg       0.444343676   0.553335828   0.443209613
Mg       0.444767587   0.555963112   0.943571621
Mg       0.444979917   0.890175730   0.446908354
Zn       0.444947907   0.888033832   0.942889787
Zn       0.778910879   0.223333256   0.444020919
Zn       0.776496438   0.221880035   0.944054274
Zn       0.776703053   0.554239387   0.443497717
Zn       0.778420457   0.556054122   0.942364763
Zn       0.777993205   0.889096875   0.442851767
Zn       0.775987567   0.887073080   0.943118543
O        0.222561767   0.111781819   0.003536031
O        0.222241296   0.111304575   0.502507308
O        0.223756303   0.445558395   0.002868406
O        0.222207967   0.445272537   0.502462473
O        0.222456815   0.778522012   0.002026266
O        0.221947590   0.778346001   0.502264498
O        0.554860614   0.109767219   0.003808473
O        0.556332362   0.112317715   0.503767462
O        0.555980995   0.445143977   0.001153548
O        0.555454483   0.444792672   0.504965249
O        0.554752134   0.776957387   0.003908215
O        0.554418502   0.776249133   0.500214940
O        0.889120361   0.110921234   0.001541764
O        0.887977473   0.110582303   0.505095130
O        0.889049478   0.444648015   0.001907297
O        0.889459545   0.445067513   0.504148205
O        0.890822900   0.778795700   0.002010040
O        0.889104344   0.777847089   0.502593677
O        0.110854120   0.222213934   0.253765516
O        0.110662055   0.222006389   0.752602308
O        0.111341502   0.556257245   0.250666857
O        0.110276650   0.554855939   0.755799979
O        0.110182457   0.888771848   0.252916562
O        0.109320371   0.887708806   0.752226817
O        0.444812071   0.222854940   0.253489690
O        0.443802550   0.220930923   0.754082353
O        0.446017884   0.557321073   0.252361818
O        0.444784911   0.554368315   0.752822863
O        0.444668544   0.889334606   0.256212601
O        0.444314790   0.887686976   0.751001135
O        0.777795404   0.221727520   0.252870931
O        0.778423616   0.222783571   0.753052641
O        0.777704280   0.555947586   0.252315681
O        0.777318995   0.554642900   0.751234664
O        0.777624587   0.888324899   0.251481943
O        0.777348043   0.887866494   0.752108541

