Image 1   O470 O471                     
   1.00000000000000     
    20.8980173784889445    0.0002962233954380   -0.0000389486973079
     0.0002876497099074   20.2925777177251518   -0.0000323364218002
    -0.0000378188948111   -0.0000323395217931   20.2926033171226408
   Hf   O 
   256   510
Direct
  0.9991175071196124  0.0002037404377638  0.0001282890695577
  0.9996602498634306  0.0003492676330579  0.2505608796840413
  0.9997098128593150  0.0002372760513676  0.4999594236994036
  0.9990810907851523 -0.0000247493903174  0.7495275947717218
  0.9993930032712913  0.2506688173016098  0.0002414363032816
  0.0001915527813666  0.2506304394192199  0.2503548346511401
  0.9999061465120463  0.2508446750366913  0.4998031692333345
  0.9990615134028848  0.2505647077899802  0.7496549899976939
  0.9999217375276889  0.4994895308996001  0.9997338408537374
  0.0007873594128533  0.4996060585404445  0.2497207186210580
  0.0010083264327688  0.5000634837290356  0.4995833752883495
  0.0002345451482979  0.4995660511410819  0.7495234281558758
  0.9992228584151422  0.7497551821718261  0.9997948201619303
  0.9997548810189760  0.7499939875326793  0.2501835284225327
  0.0000272047321821  0.7500014274960196  0.4998272486994804
  0.9995366108891267  0.7496402510436780  0.7493625573343230
  0.2494359640433068  0.9998239585060609  0.9999520591412606
  0.2495465349284236  0.0016856551395194  0.2503278973552764
  0.2503684476849772  0.9996643117772811  0.5005335224621633
  0.2503096969152528  0.9978458888764637  0.7504671539960266
  0.2501365156668882  0.2489759719041807  0.9998161697091853
  0.2522413752475785  0.2527886771412112  0.2506322343615096
  0.2530218287816015  0.2499714218980634  0.5021602430980799
  0.2513172901999732  0.2467895616448458  0.7518060601806056
  0.2487981826597428  0.5015852234722706  0.9988442174315328
  0.2449878521314122  0.5037729289094925  0.2459908191603353
  0.2457099677152900  0.5025767347472615  0.4952753533437283
  0.2520107200395145  0.4993672610939273  0.7491618219615188
  0.2491055875364574  0.7513925558335531  0.9993488928325209
  0.2471635624771288  0.7523785265672660  0.2473363749695019
  0.2477015309666887  0.7503411551521117  0.4981964225664474
  0.2497433171347435  0.7499164839196582  0.7500565040415502
  0.5006626740184169  0.9999005632382788  0.9999150279899671
  0.4998786792552943  0.0006526280752147  0.2493113548605330
  0.5002767023781467  0.9995271042308400  0.5004651248606978
  0.5011154976385922  0.9989723449233420  0.7509858647151496
  0.5007137007669489  0.2496257185495493  0.0002346391470753
  0.5010598881428738  0.2488012212382482  0.2508726600539013
  0.5017199071598286  0.2473913038091212  0.5028210276395438
  0.5016729299849551  0.2485913493427635  0.7517721235217165
  0.4996943098626084  0.5004640915253670  0.9984031313827998
  0.4971657908922565  0.4996712805156158  0.2493299907922389
  0.4980027852138744  0.4980757218698378  0.5021321133469704
  0.5006007576932707  0.4982730610673563  0.7516056658672138
  0.5005748556487380  0.7507036367977872  0.9992219968627634
  0.5006503385689830  0.7526808694959791  0.2479252564436401
  0.5011431345511258  0.7521395422056737  0.4989312947329212
  0.5011107728073327  0.7504445546640370  0.7500800705853397
  0.7502492110853383  0.0000670952948817  0.0000972482608543
  0.7502906948349255  0.0001599574061261  0.2500442086622842
  0.7502555335889838  0.0001917060167801  0.4999126534221589
  0.7502506938675361  0.0000907655275880  0.7499332568693323
  0.7502924025545946  0.2500368945149226 -0.0000403148356155
  0.7500062432903765  0.2500729059166359  0.2498181223471409
  0.7497498505504135  0.2500852505758536  0.4996081922411044
  0.7502063207662654  0.2500455896169458  0.7497553276534007
  0.7501375070882675  0.5000335772274085  0.0000633058905635
  0.7491199217507918  0.4997930036235948  0.2503475567132762
  0.7486783051594915  0.5001364513552091  0.5001290794249322
  0.7499346314706586  0.5002418879422377  0.7498385118410731
  0.7501966170775970  0.7498412194109243  0.0000602305198148
  0.7501962885549225  0.7498272297004623  0.2501047176873660
  0.7501058472652007  0.7497515792773868  0.5000756923249243
  0.7501934165172749  0.7498154389574310  0.7499738276708410
  0.1256859868815898  0.1260208763338243  0.2493684416919025
  0.1250304835331714  0.1241591928095445  0.5009023102600880
  0.1234983611412651  0.1231988571384331  0.7517885744015756
  0.1240638564151817  0.1248170426333934  0.0004775469520803
  0.1276107753569736  0.3744873741064899  0.2496174274285905
  0.1261667633331909  0.3732138979561570  0.5016334662916249
  0.1248489342266947  0.3732305225594286  0.7519548917535700
  0.1256238887908757  0.3746679934753394  0.0007462943122055
  0.1244154610085762  0.6273237947152234  0.2472200986831181
  0.1244465668273620  0.6265308510335142  0.4987116348809734
  0.1243377664667641  0.6249993736445117  0.7499808083768653
  0.1235384988390929  0.6258969531965199  0.9984289988641005
  0.1243732227823865  0.8764038171320523  0.2487869438598032
  0.1243446072988073  0.8751515431321236  0.4996975002294289
  0.1235311005131113  0.8744101241107054  0.7501659862179332
  0.1235537062878208  0.8755744074608569  0.9994181029423198
  0.3745038337253866  0.1258344492817650  0.2497717897627268
  0.3738100406307488  0.1247062212470537  0.5013979944974459
  0.3743464777118692  0.1224761717169277  0.7508497778836786
  0.3752723564359037  0.1231846570403675  0.9989592590440844
  0.3794050487639472  0.3686956897638706  0.2425746599298881
  0.3798243683971232  0.3659955709855983  0.4926465111389550
  0.3754120188459903  0.3721574647173106  0.7500817347069566
  0.3744330244718767  0.3750622198752859  0.0008214025298722
  0.3790640019582757  0.6273370902202058  0.2461097471462807
  0.3794378459294230  0.6288422217180425  0.4995834870322673
  0.3754926958657407  0.6284633118029540  0.7530914444516762
  0.3755537499054363  0.6261155781958818  0.9990737879387408
  0.3757918202243771  0.8766752451345458  0.2492934894368911
  0.3753734233525681  0.8748661868007135  0.4994260470713472
  0.3745769128780856  0.8741847502129120  0.7500067732616953
  0.3751459526253048  0.8758586900699619  0.9999376710235290
  0.6257690330273287  0.1251025560321130  0.2496621656427137
  0.6257877400684826  0.1251373477386804  0.4994494152236619
  0.6258850916205816  0.1250838368889221  0.7496013216592358
  0.6258965866837557  0.1249742697721628  0.9997016883521256
  0.6237638847873163  0.3750661006504884  0.2502426207772330
  0.6230360473806664  0.3749380956024059  0.5000343146724311
  0.6250852982620161  0.3749302361326093  0.7498697067183850
  0.6256628431773933  0.3749237776115428  0.0002441481752619
  0.6248010045237357  0.6243712043929708  0.2493561391880682
  0.6242839554276809  0.6246394509364579  0.4995424258266338
  0.6248404279142044  0.6250070411116933  0.7499730207599428
  0.6252886988971682  0.6246045803677823  0.9997840940701959
  0.6256801041835280  0.8751782081206002  0.2501852322879474
  0.6254701262003503  0.8753535260744301  0.5002136032903520
  0.6255353443648130  0.8750858955341366  0.7499195179668112
  0.6257714888601453  0.8748615957461443  0.9998816863149984
  0.8750140553592273  0.1250993142442813  0.2500191676380013
  0.8750557810452255  0.1252418281575699  0.4997805045177925
  0.8749168511377771  0.1252156206002307  0.7497826402935055
  0.8748630677449726  0.1250641906162030 -0.0000489783705377
  0.8747355345273561  0.3751074730150468  0.2501313907656175
  0.8744170414485776  0.3750763611626615  0.4996486374298515
  0.8746441125552785  0.3751209534896794  0.7495409835053679
  0.8747568581243524  0.3750660936018507  0.9999204538342240
  0.8749450031268612  0.6247093467041960  0.2502000573293228
  0.8750780817873680  0.6248638705006038  0.4999207818524974
  0.8752687841564052  0.6250785222033699  0.7500123042978395
  0.8750069151501598  0.6249266152450667  0.0001442964851080
  0.8747635895132896  0.8748747975631485  0.2500714779067088
  0.8748911711512193  0.8750103642454028  0.4998551128335811
  0.8748907599316292  0.8751097913677390  0.7498563270509950
  0.8747308601079367  0.8749853875768534  0.9999760822055053
  0.9995304932788326  0.1254287759087926  0.1255384759617282
  0.0000382199053271  0.1251012150760411  0.3750778121235289
  0.9997486470513149  0.1250882085967527  0.6246875013434837
  0.9992332736276571  0.1253011843891288  0.8750862376802090
  0.0001903355841044  0.3754781845748791  0.1253154704651725
  0.0009438133880765  0.3750272848077902  0.3752594063834285
  0.0007119501030119  0.3754368882183579  0.6251216309530535
  0.9998722665136519  0.3755523972371136  0.8751002348708815
  0.9990498476578464  0.6244889577915269  0.1252394101509339
  0.9998904316089392  0.6242710931701275  0.3750981757522618
  0.0001417641219477  0.6244517027395661  0.6245510363798289
  0.9993897343247491  0.6243936961403799  0.8746485732663309
  0.9990765012536698  0.8750914055430160  0.1253425561046713
  0.9997185308269326  0.8748710617356193  0.3749310329664280
  0.9996523371763772  0.8747262189700563  0.6243362124711989
  0.9991395599259201  0.8748648257760935  0.8747613422237397
  0.2497281273377834  0.1251373902571209  0.1248162261138949
  0.2476830077431878  0.1246716985977615  0.3766662884832126
  0.2471805888715144  0.1226767059435263  0.6275361615052226
  0.2490802657281035  0.1236920646330558  0.8755362527553447
  0.2520560619222954  0.3757042487692243  0.1256788247767368
  0.2457158970487845  0.3724483864804417  0.3795160704346972
  0.2450292217253005  0.3712575441476015  0.6288420792956783
  0.2488077753431216  0.3734883807789618  0.8760031827002355
  0.2513100058572599  0.6282826451821315  0.1230706453177892
  0.2529946425424963  0.6250501077928027  0.3726817369958962
  0.2522440055749246  0.6222436586331266  0.6242274508300673
  0.2501352724951157  0.6261077254669472  0.8750597096698719
  0.2503334207032606  0.8772299637601718  0.1244555833549551
  0.2503670397126037  0.8753578596197329  0.3743534862041552
  0.2496141551574050  0.8733582489919922  0.6245742126860024
  0.2494670189989020  0.8752155668008886  0.8749351173643325
  0.5011150207766899  0.1245941946533214  0.1248320744842699
  0.5011592269828949  0.1229054260459043  0.3759803468760396
  0.5006678956591831  0.1223624224065688  0.6269848838332245
  0.5006045240003170  0.1243681638187117  0.8756736214361401
  0.5006284624026732  0.3767798988673958  0.1232634459190818
  0.4980541967487344  0.3769497978181949  0.3727699281596273
  0.4971914100187971  0.3753439104810727  0.6255436519118862
  0.4997146376142858  0.3745914822824060  0.8764795679306961
  0.5016797673516434  0.6264603975035242  0.1231243757436932
  0.5017333793443739  0.6276159559374184  0.3720933072202285
  0.5010470088532381  0.6262307723768432  0.6240081027239214
  0.5007194956257817  0.6254381458167317  0.8746819682435597
  0.5011066039837876  0.8760585640774817  0.1239004420284396
  0.5002750849648763  0.8755104408225562  0.3744453692798170
  0.4998682074867584  0.8743641662828240  0.6255796860236728
  0.5006592026885645  0.8751445388108701  0.8749734545061304
  0.7501969312214734  0.1252465588220236  0.1249716530640658
  0.7501035020104165  0.1253096232361159  0.3748603804417098
  0.7501833135815070  0.1252279568680632  0.6248375817874888
  0.7501922297320596  0.1252024810743727  0.8748655590964954
  0.7499658939280019  0.3748065992971344  0.1250864564672330
  0.7486999533464530  0.3749357799363167  0.3747989482237413
  0.7491307590621309  0.3752571576421325  0.6245940718361965
  0.7501347021683324  0.3750201989316864  0.8748579607321810
  0.7502031181529181  0.6250051563190158  0.1251840142542620
  0.7497431096977497  0.6249840479298601  0.3753255905403578
  0.7499979871737367  0.6249862227770800  0.6251238295828360
  0.7502845297588273  0.6250211035616632  0.8749630906175874
  0.7502533737871906  0.8749542107465270  0.1249965155627891
  0.7502350702525669  0.8748930467395242  0.3750113004701583
  0.7503072265940200  0.8748907024112297  0.6248960584105646
  0.7502448034172882  0.8749881778815615  0.8748479202516993
  0.1243353583052978  0.2500790811168497  0.1248734829231343
  0.1244176830285274  0.2485655083763717  0.3761987445528885
  0.1244070545173213  0.2477589749139513  0.6276609512829308
  0.1235179767911972  0.2491948699742805  0.8764341988660904
  0.1247880165695689  0.5018246885086874  0.1228919288350419
  0.1260300280010840  0.5018459084147550  0.3732500842348019
  0.1275107980943918  0.5005790866814190  0.6252439080067752
  0.1255499599719504  0.5003905758297982  0.8740884157805789
  0.1234699795108109  0.7518605841905365  0.1230791190500867
  0.1249725651886673  0.7509163496753528  0.3740175137303609
  0.1256596736121959  0.7490621398761119  0.6255232129492682
  0.1240400800745087  0.7502669133446614  0.8743957608348868
  0.1235017300051044  0.0006621542155843  0.1247347867250581
  0.1242937736671628  0.9999039280976622  0.3752171272221188
  0.1243691467664161  0.9986462163180027  0.6261194055713455
  0.1235332289566849  0.9994778356416941  0.8754811980850602
  0.3754920995228038  0.2465404483109808  0.1217800703768207
  0.3794558216434821  0.2461624230011112  0.3752602316102311
  0.3790361651503720  0.2477058243151320  0.6287586703768021
  0.3755315161244769  0.2489339711301054  0.8758169585664798
  0.3753630543179148  0.5028959916893136  0.1248198400315237
  0.3797857493524299  0.5089807740852237  0.3821957626520903
  0.3793618218834230  0.5063343830540326  0.6322752255854106
  0.3743765870589011  0.4999684938054724  0.8740661850007656
  0.3743142213653523  0.7525785456522883  0.1240596543474489
  0.3737973722544807  0.7502821418753414  0.3734689577355819
  0.3744849494681634  0.7491793147653754  0.6251018338439559
  0.3752444013685816  0.7518505502420066  0.8759015523320257
  0.3745459299758899  0.0008801470173004  0.1248932783601264
  0.3753690612474913  0.0001547245254537  0.3754319958487657
  0.3757681733088162  0.9983704808450612  0.6255971646303621
  0.3751221803562479  0.9991967485171470  0.8749467401373934
  0.6248664117666783  0.2500129276437340  0.1249221660497207
  0.6242771396237009  0.2504073331364668  0.3753477627784083
  0.6248051505050926  0.2506484933120819  0.6255340987879252
  0.6252830974954685  0.2504496502577281  0.8751277660876136
  0.6250769705752949  0.5000989750352092  0.1250401315102887
  0.6229910778126766  0.5000978351292971  0.3748544977703417
  0.6237424078502972  0.4999543759504989  0.6246408851018611
  0.6256311748907170  0.5001164763149615  0.8746704661131556
  0.6258800036273485  0.7499387065605833  0.1253184528479475
  0.6257570380194549  0.7498920869762259  0.3754436866354445
  0.6257539239596042  0.7499218925142523  0.6252448727626797
  0.6258772020913108  0.7500692570356174  0.8751979037513298
  0.6255104888585834  0.9999369115933807  0.1249766898985367
  0.6254055918322043  0.9996627229508334  0.3746725820886957
  0.6256694457716445  0.9998372991803958  0.6247124371330557
  0.6257509891300002  0.0001619248344665  0.8750315385168206
  0.8752786212726059  0.2499925135120620  0.1248876554799504
  0.8750772547263740  0.2502404274803542  0.3749590448725090
  0.8749469324191663  0.2503915073101107  0.6246888028639588
  0.8750045565120562  0.2501546800814147  0.8747493187544373
  0.8746497696778245  0.4999838523488629  0.1253605221562348
  0.8744169639016174  0.5000527289389415  0.3752195350173567
  0.8747288870071230  0.5000045132015378  0.6247551787522752
  0.8747561304629301  0.5000199314760111  0.8749560229205089
  0.8749223411579359  0.7498664973689549  0.1251049407641515
  0.8750532043561442  0.7498733531613757  0.3750970395427189
  0.8750103397017724  0.7499917005212413  0.6248754135246977
  0.8748735676471523  0.7500286224402247  0.8749364834079287
  0.8748848643874976 -0.0000237415103620  0.1250558237483036
  0.8748906732343992  0.0000681936819963  0.3750200861905469
  0.8747755664054571  0.0002189366461892  0.6248276552694518
  0.8747379493877919  0.0001057511564674  0.8749149336383717
  0.2009415963406530  0.0658227384195546  0.1895909570296545
  0.2005750823479200  0.0624383290112301  0.4392812667214321
  0.2002396889362053  0.0593009049006705  0.6887059403837866
  0.2005927761286373  0.0628130033239289  0.9389167770526133
  0.2026485031493995  0.3178490247875318  0.1920680367302856
  0.1996211907260908  0.3121550417415599  0.4428316342360282
  0.1992640577119930  0.3081389727679292  0.6917621021596525
  0.2007834650924196  0.3132307488896272  0.9406095773848071
  0.1992456008226808  0.5668485641495066  0.1830031002934900
  0.1995882451567131  0.5628249362919895  0.4319346579882711
  0.2025995400903830  0.5571574559420357  0.6827051019853494
  0.2007836390289001  0.5617495387213077  0.9341418690994073
  0.2002207068600803  0.8157594976234317  0.1861723407400874
  0.2005759119737079  0.8125835795557519  0.4356126088756775
  0.2009637449935822  0.8092286378409828  0.6852767299637808
  0.2005973092838331  0.8122351725295210  0.9359575079326516
  0.4505945545017490  0.0645671952984124  0.1882264322203424
  0.4505892143866551  0.0621886985077256  0.4380820357909017
  0.4504964487345687  0.0602898512160987  0.6880999077140301
  0.4506494329811716  0.0625470008783205  0.9381269286233400
  0.4515150121711058  0.3159236604623901  0.1902215581735393
  0.4499013467820604  0.3131387370235956  0.4388923375067364
  0.4504028143527269  0.3102544050400275  0.6872638591141697
  0.4506373086589907  0.3121537745973361  0.9382396470839289
  0.4503999517029929  0.5647855121753727  0.1876148556642224
  0.4498774200591347  0.5618278436665137  0.4359649719800972
  0.4514668515598415  0.5591150055159444  0.6846449328826693
  0.4506213239328463  0.5628950147569990  0.9366307975395272
  0.4504841920213488  0.8147333179959206  0.1867666191784134
  0.4505953440480825  0.8127976370141363  0.4367546579332433
  0.4505989190788550  0.8104544336998438  0.6866623680636393
  0.4506419076213899  0.8125165693816973  0.9367541722810799
  0.7010060233681389  0.0624050247770541  0.1873240878134680
  0.7010005079721009  0.0628396842375321  0.4375958165839774
  0.7009555669374327  0.0628234931204818  0.6875564477460927
  0.7009673102274862  0.0624379388076522  0.9373065696863311
  0.7007806343168695  0.3126239759158214  0.1876509666463142
  0.6999565248597928  0.3127649993124476  0.4376112221903952
  0.7004857755844550  0.3126176618818090  0.6872957748918851
  0.7008838654686770  0.3124823698297265  0.9373916104684817
  0.7004768025050773  0.5624082878246232  0.1876122324575132
  0.6999491808799166  0.5622919947967870  0.4372876633382741
  0.7007560718834905  0.5623870145015843  0.6872276801515470
  0.7008852293074123  0.5625268770608426  0.9374900658055659
  0.7009539001510126  0.8122106353158833  0.1873646062126427
  0.7009999527263642  0.8122478822310114  0.4373481635428029
  0.7010107682158724  0.8126209774880797  0.6875853543096624
  0.7009634263622014  0.8125472942672028  0.9375715726001200
  0.9510536963264926  0.0620741298354588  0.1873396420736976
  0.9510461352081927  0.0626873071141753  0.4374613011576757
  0.9508126928319820  0.0631761514593729  0.6875057706483008
  0.9507388527456008  0.0625392006784420  0.9373858012505679
  0.9517480577633380  0.3119730811579165  0.1867149936608635
  0.9511237262222649  0.3125692999387525  0.4366550039774486
  0.9508881705072415  0.3130442219998487  0.6866420092175988
  0.9510159678556550  0.3123924172023951  0.9366909514542742
  0.9508843928533167  0.5620715949652588  0.1883015711850747
  0.9511200687358604  0.5625904482831301  0.4382894733380718
  0.9517236207225281  0.5631322444671559  0.6882180513705082
  0.9510239520649992  0.5627247950819109  0.9382358670231897
  0.9508200910970044  0.8119432172444488  0.1874038702127765
  0.9510418592740160  0.8124642247377813  0.4374617725391057
  0.9510622126860312  0.8130090858122555  0.6875645502652505
  0.9507535672877224  0.8125497035054103  0.9374966902254316
  0.0761932268441308  0.0634950911763048  0.1877680270413545
  0.0760706726191735  0.0626708048974900  0.4379716601750052
  0.0755968667988591  0.0615911184448217  0.6880395317953739
  0.0757209428374943  0.0624944912536369  0.9378263004552116
  0.0773479881102251  0.3129850384435536  0.1884196177047250
  0.0762169849280679  0.3126238804351962  0.4381061682664004
  0.0754945564259025  0.3118898635764001  0.6882399093198474
  0.0759949279963157  0.3123984715525038  0.9386934232132665
  0.0754856706121326  0.5632552953981770  0.1865694062704021
  0.0762017830894829  0.5626406487375649  0.4366799773386650
  0.0773028799866859  0.5621478687328233  0.6863993955207829
  0.0760081671712297  0.5627900343556542  0.9360841372551861
  0.0756031743123438  0.8135029741094985  0.1867968545528660
  0.0760613180331864  0.8125693386964463  0.4368260996596398
  0.0762131882642506  0.8116389716842909  0.6870743147733911
  0.0757278533405765  0.8126767873028727  0.9369840521484522
  0.3260600263342344  0.0635982015736313  0.1868748693665615
  0.3260094464787386  0.0623214118182428  0.4371984660405058
  0.3253616276965148  0.0615180120644452  0.6866786040902961
  0.3254895315962397  0.0624076802548398  0.9364682083253613
  0.3268702314694729  0.3097312064210684  0.1829542549151061
  0.3246736076309021  0.3099180102624127  0.4308139289990838
  0.3245669442117488  0.3134773649518514  0.6836483219859099
  0.3261186365859418  0.3131463265978079  0.9358724690184356
  0.3245542817352800  0.5616067545100443  0.1912116286002264
  0.3246502949797480  0.5651102012930362  0.4440147654658092
  0.3268200406100345  0.5653500700314321  0.6918638126191160
  0.3261141688751572  0.5619152665919660  0.9389982216729242
  0.3253448106316438  0.8135355728497744  0.1882379811694375
  0.3260176686228891  0.8126653420469173  0.4376938857895675
  0.3260953290302545  0.8114728195931670  0.6880130725427467
  0.3254901458935582  0.8126258389451133  0.9384411768325017
  0.5759358553525503  0.0627051204318894  0.1871350658668317
  0.5760107609958859  0.0626986093959747  0.4368295974744449
  0.5759233357752847  0.0624959903090515  0.6870569753129541
  0.5758856364700453  0.0626140152690235  0.9372856479406162
  0.5759254376918981  0.3119034077136559  0.1881741806505791
  0.5744609457559403  0.3123398247424353  0.4379829981859594
  0.5750814276473990  0.3125333062817041  0.6881996142310522
  0.5758833415772786  0.3124289504137200  0.9382132639831280
  0.5750756032760987  0.5625565678715280  0.1866367384869425
  0.5744656557679828  0.5628560121412615  0.4367829819125789
  0.5758914685502354  0.5631628961777199  0.6866604434321306
  0.5758722845274219  0.5627328460237013  0.9366048475184645
  0.5759152798929275  0.8125661066863349  0.1878172631715347
  0.5760142457733231  0.8124368091665468  0.4380148144898061
  0.5759349216941441  0.8123528191483380  0.6877554983612668
  0.5758815955697599  0.8125161647301796  0.9375582818673692
  0.8260442727703290  0.0625584470443736  0.1876458670002691
  0.8260571360005862  0.0625264335867584  0.4376327586449285
  0.8259237363299393  0.0625010535014908  0.6875593597028554
  0.8258729434998442  0.0625534956168739  0.9375602316253282
  0.8263363923489947  0.3127162821907107  0.1873717582732420
  0.8256457496957896  0.3126384809700803  0.4372986972160842
  0.8257097807870269  0.3125466133372665  0.6872598301747498
  0.8259804132695904  0.3126172055168403  0.9373113578953801
  0.8257042624071280  0.5625216932715169  0.1876596168924613
  0.8256311676651173  0.5624658067036847  0.4375832698750732
  0.8263102488088145  0.5623411878159360  0.6875476672704030
  0.8259942329543910  0.5624380276658772  0.9375982121356102
  0.8259274522765369  0.8125571010425919  0.1873684496900307
  0.8260434028645781  0.8125632697566433  0.4372744292082549
  0.8260487262877981  0.8125076175109152  0.6872792231409792
  0.8258746904969880  0.8125197151088268  0.9373500631249767
  0.1737895559997439  0.0637199789708799  0.0639548233889561
  0.1737589852232100  0.0641443843017767  0.3142564382350445
  0.1737966443173739  0.0624024494914305  0.5646158675700020
  0.1737495745525384  0.0620087983785619  0.8141567588566501
  0.1745514997601647  0.3151201944508545  0.0666285542471830
  0.1754202565664377  0.3143552707494121  0.3175325772745569
  0.1750589128358017  0.3120295660101895  0.5674144970117294
  0.1737785136262525  0.3126243061895639  0.8165913074756506
  0.1737467182351106  0.5623415162463493  0.0581667933475112
  0.1750059195320506  0.5629309816252748  0.3073532781904172
  0.1753822021552315  0.5605707252249822  0.5572264691975167
  0.1745081846306079  0.5598280425855480  0.8080953437803178
  0.1737592307851163  0.8129756633070071  0.0606759860093637
  0.1737837718770854  0.8126010942277768  0.3102599046558547
  0.1737655383232154  0.8108417353408595  0.5605930920942716
  0.1738127711622964  0.8113191024095072  0.8109122787888858
  0.4241025306860839  0.0628124239650765  0.0627876961470074
  0.4233044013487313  0.0628841816479543  0.3126739495706159
  0.4231521429948059  0.0616444063178803  0.5630466686376097
  0.4239930361336821  0.0620122045498564  0.8132483414231194
  0.4240725818851015  0.3131310375686221  0.0636331010827792
  0.4252128520365965  0.3113666325047926  0.3133509749947722
  0.4248044274697856  0.3090842337978023  0.5617891309600787
  0.4240726670576112  0.3115191776399893  0.8123220242774755
  0.4240522754332102  0.5634547555018328  0.0625429863324418
  0.4247529488488280  0.5659009111860066  0.3130597916016922
  0.4252051484933240  0.5636545087216134  0.5615057135157508
  0.4240312534317988  0.5618501432457648  0.8112265868989658
  0.4239910844560653  0.8129607083287455  0.0616027249892028
  0.4231486014072883  0.8133124871051571  0.3117817391363313
  0.4233094052973623  0.8121169729021877  0.5621847234866978
  0.4241051439988133  0.8122185359728102  0.8121078218401091
  0.6739477677563047  0.0622349488980750  0.0622535743461749
  0.6739085296681634  0.0623909178327881  0.3123648801302597
  0.6738597247324588  0.0626312570309030  0.5624208467242400
  0.6739372555255178  0.0626172891185872  0.8123877313341969
  0.6739973682910237  0.3122672607391863  0.0625260939730768
  0.6728793729902418  0.3127098041367061  0.3126030772114387
  0.6726281793765576  0.3129596672374072  0.5623769644827619
  0.6738188943316371  0.3127188711146321  0.8123917116716809
  0.6737978904382945  0.5622913936575461  0.0624982084536643
  0.6726141569545574  0.5620743816545271  0.3125160092476414
  0.6728683355988897  0.5622962285797900  0.5622651276961185
  0.6739744479090589  0.5627403636088518  0.8123481622920135
  0.6739409328465580  0.8123917946241400  0.0625108155176155
  0.6738628860058437  0.8124214538318143  0.3125047167435652
  0.6739192903242625  0.8126365398982019  0.5625541390197183
  0.6739592414565362  0.8127613527431408  0.8126230023684922
  0.9237795165193237  0.0623521158498206  0.0623145002400772
  0.9239518467739783  0.0624113985484760  0.3123709477529264
  0.9239606705651715  0.0629070540766727  0.5625396226113926
  0.9237654899262369  0.0626238908209018  0.8123891626593256
  0.9239795849206468  0.3121128381348972  0.0616109049683303
  0.9238992163312232  0.3121061001385804  0.3116122716528216
  0.9237641933491805  0.3125413870671626  0.5615135442083405
  0.9237465354326523  0.3123032075797532  0.8114710822415918
  0.9237366438840873  0.5628250698708654  0.0634875309284579
  0.9237422814021619  0.5626320137607164  0.3134357394774017
  0.9238885289573177  0.5630514984984282  0.5633445527560864
  0.9239707401788664  0.5630044951368046  0.8133266441055319
  0.9237624793257614  0.8124690620397426  0.0625171596213176
  0.9239594310509686  0.8122503178711235  0.3123944024327956
  0.9239550835507228  0.8127160731624612  0.5625578325589540
  0.9237977757206771  0.8127334287905728  0.8125889481182053
  0.0486289443918680  0.0626760504084079  0.0627009743441053
  0.0488480632868658  0.0621803500041901  0.3130390754584254
  0.0489054995616481  0.0624695495546558  0.5626434410588723
  0.0485929931177534  0.0623140082625477  0.8126308284005076
  0.0492089567557003  0.3124921241201844  0.0631565694242560
  0.0498810966717140  0.3123358208063919  0.3128933162990846
  0.0496922070405360  0.3130389938006790  0.5623222564721704
  0.0488669629571255  0.3123053821460332  0.8128831970691849
  0.0488389235464904  0.5628382882485060  0.0619227602063871
  0.0496448162305057  0.5621187964347770  0.3125066454099793
  0.0498719103676952  0.5628462637075137  0.5619344853399991
  0.0491805573056804  0.5626460337653943  0.8116607419452505
  0.0485971345269210  0.8128038557334691  0.0621960686857950
  0.0489026129792621  0.8126831198259087  0.3121816064957917
  0.0488564620029653  0.8129774772061641  0.5617967230674501
  0.0486516038066992  0.8124342350524874  0.8121386636889036
  0.2988370327799821  0.0620715073672630  0.0622741502736198
  0.2989270441023391  0.0666258695176500  0.3113570665811980
  0.2986485426914262  0.0671622996017565  0.5605917883178411
  0.2986980943992260  0.0630347772070141  0.8113943293223062
  0.2986221619523395  0.3128566380738021  0.0605607793784570
  0.3005110668335887  0.3323540038868841  0.3048855212768555
  0.3003301105480721  0.3322818105528587  0.5529345662360516
  0.2989405502407357  0.3137866292047395  0.8103738860138721
  0.2989086567417310  0.5612555941820470  0.0644983142927633
  0.3002747076484544  0.5426482143022623  0.3219263638318945
  0.3004898119526170  0.5426251310244592  0.5699344724637833
  0.2985680883742885  0.5621960048199042  0.8142784960437488
  0.2986926286078868  0.8120045594004315  0.0635336910426056
  0.2986259050910880  0.8077927090557476  0.3143236622676089
  0.2989166690857439  0.8083394737536691  0.5635581384909785
  0.2988579527725735  0.8129287761216524  0.8126310973287126
  0.5491176246906668  0.0620738832638448  0.0624432522144568
  0.5491235896411827  0.0623944487039121  0.3120790838510226
  0.5489898986443733  0.0633057352220550  0.5618234198682283
  0.5490655932218804  0.0631303791909412  0.8121011512230378
  0.5489104309205186  0.3117864995186042  0.0631554801463914
  0.5481114026700563  0.3128930338763217  0.3132302695264020