Image 1 O470 O486    1a=5.21            
   1.00000000000000     
    20.8980173784889445    0.0002962233954380   -0.0000389486973079
     0.0002876497099074   20.2925777177251518   -0.0000323364218002
    -0.0000378188948111   -0.0000323395217931   20.2926033171226408
   Hf   O 
   256   510
Direct
  0.9996770848972604  0.0003053342173889  0.0003432132244463
  0.0002063947538150  0.0002642819388273  0.2503429392641211
  0.9995887549017287  0.0000430573140828  0.4995522793759233
  0.9996995511781879  0.0000358264178250  0.7499449823167558
  0.9998003427707653  0.2505240794093126  0.0002890460073884
  0.0003199767018393  0.2505200944189106  0.2500477782295920
  0.9994016631556840  0.2505846469471202  0.4993775724384060
  0.9995783378537101  0.2503952224859345  0.7499273398838312
  0.0000782417601834  0.4996585599612660  0.0000395198940474
  0.0005081880066089  0.4996945873460265  0.2502718071877025
  0.0003579468128502  0.4999511669583208  0.4994221750062752
  0.0002266084685341  0.4996327337573608  0.7496986735859376
  0.9995495787242089  0.7498597655593137  0.0001068424802881
  0.0000912219552522  0.7499278529020780  0.2503001186762945
  0.9998282433623393  0.7496756446319010  0.4994366201618380
  0.9996947659832426  0.7496530002783656  0.7496910463124009
  0.2491313612265425  0.0003224100106525  0.0000016686297237
  0.2499809213835989  0.0014655698237742  0.2506610086821992
  0.2499944739145246  0.9985319897813956  0.5001082813373741
  0.2493159206153803  0.9996705932765950  0.7502779893379130
  0.2498533673910379  0.2503533245615656  0.0002152164808744
  0.2529607807425116  0.2524982143449377  0.2511026027094980
  0.2509808700008184  0.2479283018582810  0.5020161993312793
  0.2499646734720001  0.2498470053159034  0.7513899934773909
  0.2475988753708079  0.5014182785052738  0.9989814640384959
  0.2447781532043330  0.5033611576647855  0.2466105049742219
  0.2529852417506613  0.4988593590074536  0.4974694479187523
  0.2500054495420981  0.4993031910135949  0.7484875990211529
  0.2489099535724213  0.7511559178358670  0.9988077566326519
  0.2475942164382681  0.7510031571265996  0.2485429590603402
  0.2498668456941480  0.7497363828730482  0.4996267563349111
  0.2491415922648449  0.7499671340621842  0.7496342482676939
  0.4999590731258545  0.0003530115762189  0.9997607479933487
  0.4997884214335702  0.0016205902714615  0.2501916938615859
  0.5011855679591075  0.9977380485262112  0.5011544462191252
  0.5004560593853880  0.9993559256456749  0.7505980863061640
  0.5004127342565619  0.2503169563174261  0.9997983795636159
  0.5024065608006617  0.2512959476314641  0.2523700515092657
  0.5028290209394976  0.2465183631191264  0.5034294114017878
  0.5011953741188608  0.2487927404804906  0.7521908433173279
  0.4977566148728921  0.5030071613135033  0.9971411882992648
  0.4911624272591039  0.5029880044481694  0.2469693019271161
  0.5023833950688472  0.4975915450803056  0.4987085869028841
  0.4997961622696220  0.4997538280112895  0.7483787482934041
  0.4994888483839591  0.7520199710516571  0.9979597319710019
  0.4977331088241767  0.7528590255511501  0.2469515567224023
  0.5004078005817008  0.7501335109164138  0.4996554040387312
  0.4999707164743140  0.7501762897295213  0.7496538616738375
  0.7504941888679454  0.0002411247103611  0.9999208296373410
  0.7495596049415826  0.0005903794715116  0.2496013254778566
  0.7507317853675052  0.9991392139904367  0.5007543151241112
  0.7506675945044678  0.9997432928306162  0.7502281476961560
  0.7506926681520777  0.2500434372044051  0.0000274897262710
  0.7503350140923774  0.2488007918933177  0.2514608200061541
  0.7519616815101932  0.2481478479663872  0.5018587597468143
  0.7507186847227223  0.2492239889993393  0.7508386393275621
  0.7502248647357340  0.5009527259520368  0.9982109436738393
  0.7465530326904614  0.4996867539400432  0.2502746937746172
  0.7503399011422656  0.4985059265110542  0.5011895142009674
  0.7495476151233477  0.5003481605109499  0.7493856445599580
  0.7505379824695255  0.7509497726976831  0.9990187189168218
  0.7502506623075348  0.7517626458198514  0.2490230355601046
  0.7507126860206884  0.7499655860800176  0.4999382996483104
  0.7504954023287976  0.7500514011909883  0.7497270599834667
  0.1258759827798995  0.1258028798639184  0.2493983509503779
  0.1240536441766623  0.1236052677757563  0.5011758979590296
  0.1241449122712399  0.1245745784359635  0.7506180528185089
  0.1246308556863087  0.1253525810287237  0.0002490967031241
  0.1273098401845356  0.3749477863289632  0.2498812678208011
  0.1245698834349755  0.3733871614052168  0.5016344246447232
  0.1248326426159205  0.3745098880712882  0.7504494078527959
  0.1258628703520586  0.3744805561153663  0.0007102410721262
  0.1245382346916911  0.6267213878862311  0.2483107234632305
  0.1250539832872613  0.6250115357760173  0.4999555819375746
  0.1242299739545967  0.6250974005361418  0.7495696214111329
  0.1240574483649580  0.6262522530673730  0.9985385913405639
  0.1248232509630292  0.8755565287562100  0.2494117800210083
  0.1242312821673028  0.8746250664412327  0.4999893591887137
  0.1239820579821433  0.8748843102701469  0.7497851906220732
  0.1241225731938258  0.8757073092676834  0.9994727897923059
  0.3754543630503216  0.1269861944123825  0.2503678935540838
  0.3740149601195883  0.1217642363988354  0.5021485941562238
  0.3743511840296271  0.1238879404593446  0.7511836822534339
  0.3752336756593788  0.1242224356650623  0.9990659185084610
  0.3802512873005989  0.3691720118813370  0.2440917164237620
  0.3767156914144159  0.3703470416575826  0.5027945963623064
  0.3753295608239189  0.3739551439396260  0.7514997141793950
  0.3754284333512845  0.3755009460768032  0.0018735806667828
  0.3767641384974951  0.6279351986148086  0.2452368506362753
  0.3751362483207627  0.6278908018983971  0.5027940686804171
  0.3737637709886620  0.6250904273258988  0.7489102249979042
  0.3740436290115982  0.6272841710518550  0.9966802287968293
  0.3753444502789209  0.8765897202191764  0.2488605653960840
  0.3737656765130564  0.8739858572575830  0.4999699353777700
  0.3741579192287435  0.8750912859997050  0.7499832451992671
  0.3743500046378229  0.8763114132498258  0.9987457689917255
  0.6244460585045476  0.1272617191116592  0.2506666553678727
  0.6252009626402983  0.1229078547267827  0.5006965563737618
  0.6253898879842560  0.1244235747852525  0.7505381706287373
  0.6257188420882240  0.1240420754676890  0.9989550401575964
  0.6285723943979162  0.3689352999781400  0.2438389435884575
  0.6275238802193845  0.3708424860842888  0.5005168973503140
  0.6258348687527404  0.3748811260196097  0.7508734849662161
  0.6244528369321312  0.3757587599324829  0.0021803293847279
  0.6275628165126850  0.6256191598892141  0.2457651985759203
  0.6249454359116526  0.6278068761397193  0.5027260361965246
  0.6248099070024833  0.6247904377700776  0.7489791509971574
  0.6252363074860111  0.6258144252339384  0.9978600527397282
  0.6258422463959052  0.8759539482728929  0.2497863783051567
  0.6247923066468982  0.8740572938516789  0.4996771558364771
  0.6253626378155431  0.8750898063273792  0.7499930178442401
  0.6253795933960514  0.8756242982455630  0.9993381916261020
  0.8752143844368493  0.1252952827293668  0.2498503960705854
  0.8754543062392964  0.1251122266693086  0.4992847653615495
  0.8753736675347064  0.1250853560445361  0.7498614952072317
  0.8754152014583197  0.1250844788385880  0.9999941113754827
  0.8733534613149500  0.3754662238580029  0.2503984965553442
  0.8747155428496337  0.3750747605287971  0.4992087689408050
  0.8749958309576218  0.3754097340975135  0.7501228635101037
  0.8752065033750149  0.3749273447067625  0.0001955472399903
  0.8747051319012188  0.6242840652386139  0.2499728006417027
  0.8750750714361076  0.6248366653537837  0.4997385657847488
  0.8751386233505265  0.6247640022908056  0.7500007828124480
  0.8754482216651704  0.6243482375294336  0.0000127969408374
  0.8749876752477187  0.8752032383081680  0.2503195815277857
  0.8751311595213538  0.8750888527084758  0.4996795225056733
  0.8751941944733745  0.8749456343788223  0.7498664362298461
  0.8753767946527465  0.8749338013961551  0.0000102812209866
  0.9998063172792648  0.1253740408858168  0.1254479293838410
  0.0000758571836245  0.1251044668498819  0.3745912017596006
  0.9995597236433397  0.1251785466541280  0.6247863060547740
  0.9996921355687118  0.1254091568094242  0.8752122366199581
  0.0002805586009500  0.3751003603026025  0.1254420791160948
  0.0004758206156428  0.3753429684527927  0.3746239275796236
  0.0000785476631437  0.3753881592932878  0.6248429998565049
  0.0001767875128460  0.3754224373066979  0.8751838411820103
  0.9993752988120542  0.6244478438626107  0.1255212360646816
  0.0002872601953229  0.6245342279973097  0.3748526928792944
  0.9998168439838173  0.6245427139376682  0.6245988961398056
  0.9995768676797470  0.6246520714395429  0.8749881467201565
  0.9995820606321364  0.8749929178671578  0.1253212293354104
  0.0001892591553918  0.8747687361170271  0.3745486614932581
  0.9997006092309669  0.8747617137496815  0.6245651333166732
  0.9996848942861077  0.8750232381857207  0.8749666118677616
  0.2498582436001528  0.1252972340303414  0.1252589559420102
  0.2476005445986604  0.1240166061463251  0.3763288485006723
  0.2489382333646061  0.1238936387062718  0.6260680510559704
  0.2491431914023882  0.1250705398678459  0.8752255794489433
  0.2529707196659154  0.3762002688045939  0.1274427719269378
  0.2447770807296126  0.3716743746160924  0.3782689566468757
  0.2476344163993420  0.3736303498288521  0.6259072904776584
  0.2499783112637624  0.3757372000154908  0.8763806919916483
  0.2509865578063598  0.6270949767424969  0.1228789812254902
  0.2529648916545070  0.6225287749091603  0.3737699848052373
  0.2498778152674072  0.6247073341269256  0.6246711308562651
  0.2499790313958836  0.6252019215887724  0.8734849464465758
  0.2499960578541278  0.8764995178693077  0.1247791654835852
  0.2499925060991947  0.8735500998151396  0.3742161519229990
  0.2491639977781321  0.8747154669084397  0.6248824050430271
  0.2493259471158043  0.8753695380708466  0.8745752677962855
  0.5003885364540824  0.1249389697243003  0.1251858755275933
  0.4977394471494541  0.1222148514388304  0.3778884202593145
  0.4994757467877808  0.1230599389151636  0.6268899756586844
  0.4999603824354432  0.1248832225367479  0.8751931816609694
  0.5023903202926669  0.3774822305276326  0.1261752425195961
  0.4911696423273808  0.3720697535021946  0.3778987876944883
  0.4977663187422572  0.3720667907096413  0.6277327247778671
  0.4997970116880498  0.3752858808162919  0.8765213999313023
  0.5028201064405051  0.6285610785269857  0.1214284294778373
  0.5023977342102138  0.6237777257407737  0.3724845652651044
  0.5004124580771105  0.6247634072657752  0.6250490138573072
  0.5011891125915550  0.6262777108119988  0.8726795284743727
  0.5011914778120604  0.8773453547246424  0.1236892325872454
  0.4998045132973865  0.8734310578681180  0.3746607528850790
  0.4999682480008237  0.8747342141378260  0.6250742375865367
  0.5004603451955667  0.8757076103763223  0.8742508103042030
  0.7507236463392374  0.1251002451925477  0.1249647089043236
  0.7502718215883050  0.1232941817877559  0.3758808612859866
  0.7505457049422796  0.1241129681527771  0.6258754561693026
  0.7504971511039830  0.1250055474650022  0.8751514680708341
  0.7503814793060172  0.3765429295958883  0.1237191819539167
  0.7466011918113759  0.3753418953817013  0.3746253396945459
  0.7502672676547238  0.3741110329912219  0.6266912507522278
  0.7495620273305683  0.3746819930102590  0.8755137159973541
  0.7519888886766511  0.6269199181039803  0.1230498821555380
  0.7503747721155809  0.6262457736751381  0.3734342882071018
  0.7507385835384411  0.6250108412903939  0.6248818984710083
  0.7507272416825400  0.6258194005421091  0.8740399334889468
  0.7507414123511368  0.8759226959961529  0.1241426249296198
  0.7495660627486318  0.8744722606800039  0.3752979651107463
  0.7504960931992354  0.8748250539876307  0.6249741120473932
  0.7506651814139751  0.8753110387078828  0.8746581708102226
  0.1250212864052268  0.2500184538813223  0.1249305378424527
  0.1245378137385710  0.2483264939765192  0.3765878256564754
  0.1240292201746548  0.2488133889022809  0.6263319064172865
  0.1242027782330774  0.2499933444599244  0.8753210101917573
  0.1245296099913046  0.5016485376836025  0.1232481736268843
  0.1273197904660945  0.5000741260233661  0.3749936627362849
  0.1258555574002070  0.5005817013167264  0.6241864083788904
  0.1248011922031115  0.5005641943359632  0.8744058050113942
  0.1240500037962130  0.7514205107997528  0.1237139997346586
  0.1258741334848054  0.7492399822515856  0.3754938690383339
  0.1246103862277781  0.7497191082362533  0.6246337168190893
  0.1241312921064900  0.7505166309453335  0.8742591181066104
  0.1242176678499385  0.0004231705597387  0.1248995130420663
  0.1248223960501919  0.9994799527699534  0.3754578467480687
  0.1241262996486611  0.9993440104107272  0.6254115961366752
  0.1239659142533881  0.0001974237467324  0.8751076549919061
  0.3751503274176964  0.2471920155611304  0.1220467410953902
  0.3767478048566187  0.2471211286132578  0.3796030144687678
  0.3740440253818801  0.2478085824150990  0.6281560366583323
  0.3737364183735900  0.2499786695052689  0.8759527063275562
  0.3767543833589689  0.5047236663920264  0.1220346013154211
  0.3802654333832288  0.5058704735587779  0.3807847083735675
  0.3754939776129955  0.4995576376574172  0.6229999145736530
  0.3753236903066396  0.5010969197311821  0.8733732321998137
  0.3740165927955393  0.7533018316301068  0.1226735816413630
  0.3754511724625405  0.7480560819090176  0.3744716356736151
  0.3752624999649540  0.7508623626138823  0.6257719820305988
  0.3743494651282734  0.7511851818832275  0.8736513327945998
  0.3737650231599982  0.0010762626095218  0.1248584409129479
  0.3753319152841779  0.9984536918076835  0.3759782740773666
  0.3743568629653760  0.9987651832922967  0.6260824933211951
  0.3741347902972170  0.9999811694970466  0.8748371943719143
  0.6248921069849519  0.2472263341268250  0.1221321388361963
  0.6275461359612065  0.2494063206965629  0.3791152813257284
  0.6252148930672614  0.2492425630957941  0.6270094954066430
  0.6247741180987065  0.2502671835117895  0.8758875701667627
  0.6275012488094180  0.5042083758625155  0.1243543760914242
  0.6285605611978560  0.5061245985132511  0.3810641402453253
  0.6244170268135827  0.4992791513044374  0.6227100864052140
  0.6258017672434384  0.5001810272894527  0.8740152362962130
  0.6252025331260508  0.7521162780164506  0.1241871201345605
  0.6244323739984736  0.7477646056017042  0.3741972648110498
  0.6257067363347928  0.7509900198934852  0.6259048433925614
  0.6253841160216945  0.7506207598372179  0.8743184827559918
  0.6247708012485730  0.0009942704219878  0.1251884836159848
  0.6258228737634267  0.9990808192427068  0.3750663249902078
  0.6253657459331783  0.9994164569986016  0.6255273643075584
  0.6253503247703482  0.9999568148120047  0.8748570586226648
  0.8750735666083104  0.2502208865052564  0.1251441336591330
  0.8747051420146605  0.2507625664644456  0.3749380082701502
  0.8754824189425060  0.2507041022006160  0.6248664673999242
  0.8751228649807133  0.2502964816186175  0.8748788386271737
  0.8747156072741591  0.4999912530780095  0.1256854744494032
  0.8733334641344688  0.4995505531635128  0.3744791245804855
  0.8752593778139214  0.5001462438959254  0.6246869089230198
  0.8749751541137034  0.4996565982986220  0.8747358745245714
  0.8754671765143220  0.7499392529822685  0.1256167077135199
  0.8752022640230180  0.7497736390303730  0.3750423223984459
  0.8754416373272660  0.7499799310002200  0.6248893848219903
  0.8753683316508692  0.7499601396733060  0.8750266333519128
  0.8751361617173229  0.9999576671456357  0.1252293671171757
  0.8749809041583335  0.9998426872071107  0.3745541871986984
  0.8754051581696747  0.0001103976137653  0.6248886463534553
  0.8752019832722960  0.0001054645101046  0.8750168315340177
  0.2010556103290687  0.0644256175165966  0.1888110484675276
  0.2005058023211838  0.0604556960084090  0.4378970772539539
  0.2005488451717233  0.0618237614745593  0.6881465822591949
  0.2007171584211955  0.0633124957220001  0.9382260729076459
  0.2028699038010172  0.3163804900360241  0.1912943296584281
  0.1990995264579446  0.3088558881500412  0.4410301236318385
  0.2005150890665659  0.3120458902595941  0.6894177232880241
  0.2010368986115920  0.3139087041941182  0.9393313487083785
  0.1990931237540007  0.5661329396679684  0.1838069771637402
  0.2028870926054148  0.5586102234285881  0.4335512275983538
  0.2010788150833887  0.5611313229455137  0.6855221106325042
  0.2005078492273456  0.5630229311109168  0.9354417814261886
  0.2005016678213008  0.8145294255484238  0.1869300808360412
  0.2010619081294183  0.8105717690710125  0.4360199084251484
  0.2007143512336645  0.8117405250454849  0.6866363910951534
  0.2005496714609382  0.8132213855619775  0.9366906094007884
  0.4508081485721709  0.0662298841723165  0.1898966626719343
  0.4500862074432441  0.0590639046289785  0.4390812698559411
  0.4505913211991352  0.0610605099612727  0.6888449513251567
  0.4507247413111805  0.0640436449601916  0.9389045662130084
  0.4524810701926444  0.3184811752962639  0.1933768120709344
  0.4490072406625866  0.3081000102390817  0.4418156540228391
  0.4500958286775136  0.3108435669793078  0.6908393898156352
  0.4507978996112931  0.3150555889290244  0.9411360234320164
  0.4490214437395497  0.5669462706272287  0.1830189719877298
  0.4524811741510615  0.5565752002748301  0.4314785126421654
  0.4508340608037871  0.5600064725070246  0.6837022593595797
  0.4501038591741700  0.5642007145485949  0.9339929985746802
  0.4500830181597962  0.8160075289066279  0.1857552024761788
  0.4508156331875493  0.8088118092996386  0.4349232154581385
  0.4507452623693088  0.8110346277327032  0.6859354701596966
  0.4505899494521136  0.8139681722151592  0.9359575361718044
  0.7007543024290148  0.0643185678711229  0.1880621899624925
  0.7005470049200427  0.0611315293927619  0.4379310166453906
  0.7008042688128704  0.0620499454578529  0.6879566227381324
  0.7007289701939007  0.0629116989979182  0.9378214390869526
  0.7013368034260039  0.3163762681418054  0.1912642506250234
  0.7004928148909403  0.3110717365129558  0.4389079732228138
  0.7005719757432299  0.3120314942209329  0.6888049971820854
  0.7007472411064873  0.3131458927232564  0.9392238405095070
  0.7005009461861404  0.5640143853738259  0.1859934134397550
  0.7013145899191902  0.5587450318105706  0.4336666216916481
  0.7007758139519176  0.5619350561479405  0.6856870274771062
  0.7005440787926638  0.5630213464464834  0.9360441583869131
  0.7005513140315573  0.8139020251554154  0.1869188155355825
  0.7007585268717050  0.8107428054418648  0.4368076217963318
  0.7007371920186500  0.8121685178177157  0.6870678530280943
  0.7007938600617831  0.8130068483183830  0.9369004725356407
  0.9510740878832311  0.0619138599885599  0.1873199154177603
  0.9508381188365613  0.0635008002403550  0.4377803400740550
  0.9508423548946541  0.0625775667092254  0.6874477055574438
  0.9508753657628728  0.0624472334236198  0.9373532695140446
  0.9515864610584088  0.3115723014686801  0.1865203388810361
  0.9506201783913166  0.3133365186969875  0.4366334481521544
  0.9508449439137961  0.3122358702426781  0.6865060852883142
  0.9510588673906640  0.3124140534649343  0.9368506512019589
  0.9506115898426652  0.5617020230214522  0.1882943904352713
  0.9515978979123318  0.5635117895954617  0.4384471242214821
  0.9510863730081864  0.5626598165953032  0.6880697396586072
  0.9508260229700417  0.5628634869564980  0.9384365044271643
  0.9508403317097529  0.8115793519806777  0.1871594923009025
  0.9510700531176183  0.8131539458833541  0.4376030861655812
  0.9508810672692969  0.8126250890789759  0.6875463570529536
  0.9508351304031698  0.8125043732605131  0.9374849752119754
  0.0762591481914878  0.0631678471398476  0.1878541133165242
  0.0757064497854513  0.0617849616264791  0.4380142649877868
  0.0757706270069204  0.0621115113259344  0.6878656988616886
  0.0758581534292596  0.0629052651317762  0.9377700159776914
  0.0774693360697610  0.3130378016891691  0.1879755572398296
  0.0753812163753512  0.3121189856824175  0.4378387592582438
  0.0757076416442810  0.3119816955616858  0.6881407600790301
  0.0762386883042830  0.3129669552144767  0.9380648858104637
  0.0753771051990017  0.5629109719181709  0.1870616051745171
  0.0774873122145395  0.5619603979741924  0.4369400050737131
  0.0762762291396944  0.5621213631017540  0.6868365654258078
  0.0756962366330042  0.5631264380508810  0.9367147614328611
  0.0757032510879928  0.8132085286020555  0.1868956975278579
  0.0762640090781757  0.8118697765556365  0.4370417697760235
  0.0758688895463349  0.8122028722674343  0.6871029814223003
  0.0757536208577596  0.8129928734522729  0.9369868253475682
  0.3265933470378429  0.0639604559140167  0.1875867144141453
  0.3254296235447335  0.0612351622556970  0.4376424507256659
  0.3255547998131458  0.0626714130006281  0.6872843239145471
  0.3256436717024440  0.0625333797908901  0.9373655477446673
  0.3276566578268182  0.3097634195449147  0.1846375503678800
  0.3243224821544519  0.3133784516355712  0.4365481884800644
  0.3254514069557958  0.3123076538774166  0.6886894682738229
  0.3265810813456205  0.3127004614180232  0.9388506995655430
  0.3243344891044659  0.5616495153039262  0.1883324977001849
  0.3276528383556802  0.5652829492721675  0.4402347118300941
  0.3266236882622418  0.5623499157866636  0.6860403702845521
  0.3254383608931434  0.5627730276058767  0.9361652992880478
  0.3254350307737367  0.8137947376889149  0.1872039387918198
  0.3266043716432598  0.8111065792919936  0.4372362462943739
  0.3256578224829254  0.8125765043157500  0.6874225851254567
  0.3255537770606358  0.8124178030533693  0.9375384216506045
  0.5763220250859543  0.0637307257866487  0.1873316674015389
  0.5754596356844243  0.0614551238852469  0.4370923561799119
  0.5757582848956587  0.0628664053167415  0.6871049808584433
  0.5756767266132703  0.0623403642782150  0.9372289452364945
  0.5762734691729946  0.3094452282967667  0.1843480146237924
  0.5736207932867785  0.3134862860138803  0.4364430536678020
  0.5754779621910098  0.3128454738623238  0.6885098191311844
  0.5763223538727438  0.3124214386329691  0.9386252776740147
  0.5736195475739541  0.5615596936178021  0.1884456888653100
  0.5762474111091601  0.5656181700513961  0.4405503481599266
  0.5763430298319381  0.5626405277562908  0.6862917905738766
  0.5754639750881774  0.5622164092780387  0.9363906282970118
  0.5754543895294093  0.8136183160447021  0.1877404237021620
  0.5763273875096534  0.8113745614086595  0.4374934073366759
  0.5756929837135719  0.8127401808455782  0.6875993806837987
  0.5757590254665156  0.8122181449196031  0.9377266447216583
  0.8259844038551784  0.0630013739359527  0.1872764573028193
  0.8258501005514324  0.0621082313281740  0.4372779325667082
  0.8259262860183018  0.0625294179978276  0.6874388703206658
  0.8259065444737015  0.0626182574248398  0.9375014426326451
  0.8261082969368408  0.3127945442025808  0.1876829662065458
  0.8252885763414772  0.3118327863734368  0.4381756732136631
  0.8258607024296651  0.3126618896588046  0.6879138056749955
  0.8259737017299673  0.3123639066218796  0.9378984824582164
  0.8253089258650033  0.5633163266120299  0.1866407740307860
  0.8261217383755771  0.5623360633250928  0.4371140290360498
  0.8260003473810377  0.5627374475271700  0.6869274299046955
  0.8258353704939444  0.5624223135621760  0.9369228534607943
  0.8258515813217089  0.8130049774519872  0.1875568252082743
  0.8259813705125201  0.8121130233147292  0.4375824304763797
  0.8259050661304890  0.8124741790107103  0.6873571533983509
  0.8259175428262988  0.8125439888627692  0.9374255395823945
  0.1737824780690403  0.0631963697914253  0.0631828072969492
  0.1738759820980858  0.0633186852609518  0.3136038169130121
  0.1737970874378755  0.0619707016668558  0.5634505097367857
  0.1738046830635630  0.0625213059606418  0.8130853500828505
  0.1748361780431293  0.3140129666637081  0.0651529513270883
  0.1747806874909570  0.3129829278430808  0.3160063816580311
  0.1738911819122507  0.3123258002722847  0.5654531548287669
  0.1739398512755148  0.3127262551203749  0.8139511212430138
  0.1738599256516792  0.5626473398127132  0.0593788499026393
  0.1747831388168794  0.5620262657825723  0.3088599887054488
  0.1748699933342491  0.5609526501625487  0.5596736504171568
  0.1739437940450284  0.5622932749908988  0.8108893624877493
  0.1737863217085497  0.8130028617786470  0.0613758474844073
  0.1738632967241656  0.8116662325592744  0.3112211945345168
  0.1737872178830347  0.8117982990447865  0.5616576996683752
  0.1738052769970531  0.8125002250760367  0.8117649927744525
  0.4239014363834034  0.0639086344060657  0.0637474265587628
  0.4231489422338596  0.0629903321733205  0.3144571216196805
  0.4238671039273079  0.0614567838517190  0.5644903129743076
  0.4239542583897842  0.0625737242273170  0.8137612539279041
  0.4247836060468391  0.3156243456342815  0.0673584949536069
  0.4254628538501644  0.3101448650989478  0.3162329652378336
  0.4245635635775672  0.3109445230661931  0.5666935984474307
  0.4240338940578285  0.3132565004248825  0.8156223787197626
  0.4245595705246079  0.5641628754256580  0.0581430985693028
  0.4254598501054688  0.5648961781474978  0.3086173362368474
  0.4247761531541503  0.5594788614307895  0.5574846689589663
  0.4240219631346934  0.5617584495640907  0.8092144089239391
  0.4238700468738621  0.8135885127978194  0.0603171972109324
  0.4231443638885046  0.8120410556574402  0.3103785695552070
  0.4239178584352177  0.8111797083108300  0.5610918659613721
  0.4239458741651718  0.8124468652024973  0.8110370687802364
  0.6740337829324418  0.0631127500194711  0.0627111451899489
  0.6729604753541770  0.0624852178815812  0.3126513127695753
  0.6740217606732167  0.0615195994625156  0.5629572000402199
  0.6740110556730339  0.0624173776967025  0.8128605785275487
  0.6741781214835814  0.3137971989872368  0.0649547322839565
  0.6738473822827227  0.3111758819034406  0.3143766696388893
  0.6748501144783443  0.3108664672495559  0.5638549661526997
  0.6738871839194830  0.3129148615174517  0.8138311717611254
  0.6748455768564657  0.5641427338581760  0.0609965952093239
  0.6738536128365741  0.5638553520142872  0.3105230463966508
  0.6741660322361768  0.5612153978655252  0.5599378405074286
  0.6738819044713901  0.5621070368671006  0.8110328196123414
  0.6740174032224493  0.8134814256968512  0.0618883553353050
  0.6729474344732697  0.8125149904969060  0.3121788930513110
  0.6740359132813951  0.8119226657253820  0.5621613256921865
  0.6740014151417389  0.8126036303825712  0.8119885954169911
  0.9238185580628793  0.0620742189207000  0.0622699149583393
  0.9238547438180844  0.0626969832351600  0.3124994882723500
  0.9238479243420861  0.0629465955084417  0.5625471435760311
  0.9238468776476275  0.0624540019417446  0.8123412009654544
  0.9240433077777709  0.3118297218800194  0.0617135732959171
  0.9231785527126291  0.3126043040182437  0.3115435283138570
  0.9239451977268786  0.3127206288800652  0.5615042077942046
  0.9238175948103642  0.3122505233656921  0.8116673596122622
  0.9239238242864878  0.5624085681646519  0.0634394816709211
  0.9231743982249357  0.5624754338504279  0.3134028861485497
  0.9240628724475660  0.5633264760178219  0.5632460671749475
  0.9238296130302510  0.5628444922986968  0.8132619400468301
  0.9238521888257430  0.8121909943715145  0.0624068462445187
  0.9238431587871053  0.8124052516550111  0.3124318319079189
  0.9238390458541877  0.8130234069387845  0.5626416932360191
  0.9238367402760044  0.8126240421878635  0.8125722212883876
  0.0487311829442427  0.0628579866239060  0.0627553710238175
  0.0489153059877227  0.0621073122181590  0.3130284232847924
  0.0487169869294086  0.0621695231753338  0.5626909095086772
  0.0487269233205193  0.0625390143719942  0.8127299756311491
  0.0493426453730268  0.3128517498434097  0.0627123857144461
  0.0492153618525881  0.3125674843788359  0.3125687403438692
  0.0489281390306588  0.3124260511605864  0.5624486860977664
  0.0488343088790821  0.3125068877713302  0.8128327920216494
  0.0488977195315867  0.5626113198952262  0.0624530681396833
  0.0491989143200033  0.5625066843064271  0.3123280051949295
  0.0493733565791447  0.5621823977576392  0.5622180108528044
  0.0488360817238314  0.5625922115830165  0.8120466509611993
  0.0487264118526340  0.8128564451498256  0.0622048291422088
  0.0489019168859511  0.8129250089764023  0.3118852949690948
  0.0487427768374590  0.8121801926010332  0.5621552073441489
  0.0487243908468860  0.8125677872382374  0.8121374460727068
  0.2986923553650057  0.0618313271777499  0.0629224749728413
  0.2989513677014317  0.0664082458451960  0.3115313242662823
  0.2986056073224327  0.0631672043282260  0.5619126142557227
  0.2987719148144195  0.0627039069529613  0.8123663088430779
  0.2989423010762412  0.3123725324595569  0.0625014302243705
  0.3014179753554704  0.3295944626965759  0.3067415781489446
  0.2995298577388136  0.3137191921370759  0.5622644212629835
  0.2988212241579830  0.3125213377707071  0.8139466180922220
  0.2995182284474400  0.5612986099083699  0.0626223347196542
  0.3014149067425442  0.5454101790775066  0.3181444397014931
  0.2989617089338925  0.5627160743360967  0.5623712081890692
  0.2988238922546012  0.5625274056195442  0.8109330220799724
  0.2986016795684398  0.8118940458351722  0.0629317619949647
  0.2989529818472498  0.8086124680079974  0.3133050839536291
  0.2987008911600399  0.8132460444158179  0.5618959194515525
  0.2987702537153588  0.8123621763121824  0.8124520282185705
  0.5488879750283481  0.0617109637669006  0.0629268366624080
  0.5488081696213166  0.0672048832240878  0.3111349167298166
  0.5489028918422801  0.0634927087321778  0.5617913322251236
  0.5489846697586375  0.0627568761877534  0.8123259959927603
  0.5484752099434038  0.3124862305838871  0.0621790965013491
  0.5487475596775792  0.3327652253239309  0.3065109484964824