Image 1   O470 O471                     
   1.00000000000000     
    20.8980173784889445    0.0002962233954380   -0.0000389486973079
     0.0002876497099074   20.2925777177251518   -0.0000323364218002
    -0.0000378188948111   -0.0000323395217931   20.2926033171226408
   Hf   O 
   256   510
Direct
  0.9999871239802030  0.0000112225916733  0.9999577390649842
  0.0001596762027321  0.0000524194364257  0.2501556236079958
  0.0001855851046344  0.0000602062811078  0.4999074538964520
  0.9999459281826591  0.9999791772393776  0.7497612928885952
  0.0000428400533116  0.2502799721365985  0.9999706519030009
  0.9999663335733876  0.2501254019662453  0.2499739391231004
  0.9996699576470711  0.2502778740862953  0.4998496767647447
  0.9996296787220106  0.2503535955502410  0.7498666463921400
  0.0002311772512264  0.4996617820591459  0.9998160673740046
  0.0002184101499898  0.4998113834033903  0.2498481876320082
  0.0001634626276878  0.5000226857344220  0.4997918068819663
  0.0000810468145982  0.4998426522135110  0.7498723718317261
  0.9999742787750568  0.7499631709678019  0.9999683375417598
  0.0000064674849687  0.7500135950861814  0.2501641895906424
  0.0001570463578852  0.7501203902406230  0.5000219336646725
  0.0001054484488242  0.7500193093475104  0.7498663025382480
  0.2503446371688462  0.0001072824102874  0.0000653217074300
  0.2501998034226132  0.0006513530199353  0.2498423025938471
  0.2503619414349946  0.0000088761754763  0.5000196599814851
  0.2505827560355379  0.9994789937428149  0.7501851134592609
  0.2506212148952336  0.2495720648335885  0.0002852527072233
  0.2511095752583820  0.2504763543636842  0.2495537236268841
  0.2511517261175858  0.2496949447741821  0.4999601303171736
  0.2508341344535770  0.2489619343664857  0.7507225300353164
  0.2494653360808999  0.5007447316395224  0.9999202217333880
  0.2478249850200768  0.5014841774590403  0.2491140560847420
  0.2490074630705965  0.5012863919751318  0.4985629307659412
  0.2510328976821018  0.5006880405479467  0.7493591678798817
  0.2501496467176437  0.7501870995252380  0.9997294805478252
  0.2491041239394482  0.7501719338819165  0.2491996956910218
  0.2493446742183683  0.7495969606483508  0.4996572619975760
  0.2505889041659787  0.7496564130390793  0.7500746795251253
  0.4999593220531058  0.0000682601627167  0.9999925903111473
  0.5002642456326337  0.9997501856312422  0.2499251022977244
  0.5002306695247694  0.0000824231852454  0.4997604931650218
  0.4998517999907597  0.0002952834798618  0.7498916447440127
  0.4996781303205946  0.2504048064936368  0.9994015966586797
  0.4996652633471670  0.2500474009035856  0.2492594467616431
  0.4997199231061711  0.2502007751650615  0.4993151033991944
  0.4998124006165943  0.2503301875318635  0.7496495425921457
  0.5004673853073892  0.4995066015328912  0.0003990451913344
  0.4992597612179760  0.4988197789345404  0.2506690836583968
  0.4988914622532833  0.4999143983965307  0.5004933369004220
  0.5001370568099911  0.5004388749446578  0.7503993154906817
  0.4999790711521407  0.7499491142408842  0.9999208447092124
  0.5002961292041443  0.7498282367217961  0.2502829541420613
  0.5001955517691221  0.7501909878449564  0.5000376148189611
  0.4998165421223308  0.7502136930729649  0.7497848290775405
  0.7500877532543442  0.0000482330894755  0.9999692709506705
  0.7500794605186054  0.0000990041019369  0.2499295743389149
  0.7500574643574126  0.0000133397336589  0.4999435346284140
  0.7501188464634624  0.9999614423502331  0.7499739876420283
  0.7502936562897901  0.2499698698725658  0.0000169879750238
  0.7501332809101695  0.2499277367033747  0.2498672025351800
  0.7498311214170976  0.2498959652839002  0.4998987969783121
  0.7500549591668941  0.2499510373116538  0.7500244733961002
  0.7498820884895777  0.4999837753956645  0.9999211050921238
  0.7492368117164155  0.4999969566090317  0.2499126866375652
  0.7491604311684991  0.5001478872303725  0.4999818218396549
  0.7499254557846103  0.5001424769667483  0.7499507887555321
  0.7500991801379902  0.7500472172851794  0.9999205709047264
  0.7499438321300649  0.7500465792856490  0.2499968342556199
  0.7500335872297560  0.7499896551880926  0.5000748766290650
  0.7502907421200805  0.7499975622212071  0.7499588247516538
  0.1255804876560040  0.1254515337026195  0.2496512925678797
  0.1251477822296821  0.1249360493584306  0.5001526386505101
  0.1246447817817331  0.1244493368370307  0.7504246511964628
  0.1251650771420319  0.1248987753247362  0.9999788968256819
  0.1259942749383766  0.3746337504077544  0.2498726767892777
  0.1254717774087342  0.3742563134648574  0.5001318136036457
  0.1251782652434182  0.3744868277042152  0.7505276458546528
  0.1258318979121624  0.3748443806742940  0.0004432282564243
  0.1244017264105503  0.6256856812244632  0.2489225783785874
  0.1243836022957524  0.6253457413547541  0.4995463960783046
  0.1245510179948405  0.6250446092554922  0.7498682065249297
  0.1245673975411621  0.6252857746649725  0.9993233247558135
  0.1252735554334247  0.8754491189193302  0.2496366000627378
  0.1252084024781990  0.8750116341992636  0.4999426512438106
  0.1249264596638249  0.8748063384189876  0.7500890289648853
  0.1250474723690574  0.8751688321316672  0.9998270596994537
  0.3743104142191212  0.1258290441138217  0.2508638518375354
  0.3742790150781834  0.1253843814844316  0.5002097920355946
  0.3752131653695450  0.1249969053538032  0.7496797871120655
  0.3751951742603768  0.1254113708913414  0.0001787646770651
  0.3704752631645425  0.3789951392799146  0.2539644608972542
  0.3711867339657475  0.3785952407685982  0.5023338391794119
  0.3755257772020569  0.3751842368235392  0.7486310338431112
  0.3740750244364215  0.3755932589495003  0.9999646956914924
  0.3765843133324899  0.6241895664929173  0.2501743868144327
  0.3773862435855748  0.6238690615089245  0.4992809759729078
  0.3767019826086185  0.6241428491001851  0.7495169765646886
  0.3757516359054156  0.6245781463680609  0.0003346792900765
  0.3751537393993859  0.8748587981980919  0.2501535172243491
  0.3753562218196062  0.8748714683726354  0.4997227474954006
  0.3755084526582592  0.8748783023704764  0.7495197771123621
  0.3752034320667337  0.8749388534492436  0.9998972159365505
  0.6250536676306206  0.1251411506907518  0.2497766459858571
  0.6250716369324884  0.1250631230314370  0.4999650962180618
  0.6250242475833987  0.1249419578882821  0.7501036821045879
  0.6250439988563358  0.1250390741858411  0.0000190011331409
  0.6245116378178208  0.3749885550454383  0.2501349010627438
  0.6241505150565118  0.3748881066869142  0.5002197066057312
  0.6248619499809531  0.3746910543399176  0.7500605369163826
  0.6252130819388125  0.3747260055331142  0.0000405523458339
  0.6245635883448847  0.6252001471337061  0.2495628770523333
  0.6246908628264521  0.6251866733470950  0.4997891909078487
  0.6251067106177911  0.6252932224398283  0.7500753101109677
  0.6249972730970301  0.6252827252355661  0.9998695745192733
  0.6251041392854136  0.8750283949740397  0.2497637816933591
  0.6251809802972726  0.8750021089723883  0.5000607770104727
  0.6250525034017065  0.8750353709276256  0.7501413007721154
  0.6250244373608513  0.8750066404376061  0.9998790042093423
  0.8751480311733426  0.1250402959852640  0.2500343016438196
  0.8750201295259717  0.1250941017595993  0.4999671505586507
  0.8750557058300560  0.1250590088488513  0.7499230752798142
  0.8751506028583561  0.1250372748670116  0.9999492799076003
  0.8747168957889505  0.3751194728057822  0.2500284718187863
  0.8744488371971091  0.3750503543059437  0.4998364066708598
  0.8747497179200079  0.3749930881070206  0.7497712391432965
  0.8749671023506886  0.3750808343088971  0.9999248384052876
  0.8748194974001532  0.6249066692621996  0.2499937968136340
  0.8749482504749596  0.6249205865081928  0.4998812318942301
  0.8753567413409883  0.6249634624918594  0.7499680895017592
  0.8751533577326737  0.6250015996055418  0.0000380179441550
  0.8750127640104511  0.8749700611546001  0.2499817333514962
  0.8750894799026041  0.8750248607950009  0.4998944014887235
  0.8751506497150467  0.8750657324617837  0.7499297202284085
  0.8750260491628725  0.8750069296880090  0.9999679188913243
  0.0000913160175837  0.1250051903872864  0.1250484613225471
  0.0001624349043427  0.1249397532690925  0.3748960375293470
  0.0000070288614629  0.1250184140262279  0.6247302914431478
  0.9999806663575912  0.1250647860899481  0.8749389049423721
  0.0000677308973581  0.3751893986306830  0.1250113910054954
  0.0001374330912168  0.3750165861399790  0.3750474467879547
  0.0001923333603770  0.3752347901947187  0.6250287000718153
  0.0001932001796606  0.3753426305615005  0.8750358966004483
  0.9996382605247832  0.6246621000107988  0.1250270405430713
  0.9996412999981880  0.6247840346903771  0.3750649859032018
  0.9999430607731379  0.6249061153049674  0.6249236801030654
  0.0000373308088550  0.6247425287904589  0.8749476503125229
  0.9999455344292980  0.8750447864700932  0.1251425788379123
  0.0001503855311395  0.8749995264739626  0.3749860209850795
  0.0001620642248918  0.8749893444139228  0.6247594006593179
  0.9999879722790952  0.8750082748236367  0.8749389883268718
  0.2505679182039030  0.1253932430359940  0.1248301600288795
  0.2493620373190239  0.1254526337884626  0.3752178797301874
  0.2491427745100758  0.1248708055979234  0.6256883183673998
  0.2501763493890231  0.1248801004115916  0.8751806880830846
  0.2510389994542775  0.3743883872454128  0.1255169215816097
  0.2490261384124035  0.3737749285581747  0.3762989619183885
  0.2478500339690378  0.3735714877661176  0.6257543603735689
  0.2494541452734121  0.3743338863250849  0.8749595141411536
  0.2508317749951225  0.6261002999092284  0.1241868121646608
  0.2511334039014181  0.6253568756728004  0.3749290841589685
  0.2511321800058282  0.6245859651571578  0.6253263633185727
  0.2506507111888742  0.6254967786529461  0.8746247167071634
  0.2505536573037550  0.8755710172700416  0.1246992118983890
  0.2503100264702211  0.8750361197726443  0.3748426995469509
  0.2502179687859705  0.8743865593084805  0.6250438775931401
  0.2503362709740730  0.8749588878266035  0.8748308425461265
  0.4998197530076664  0.1248350972862834  0.1251391295994032
  0.5002034863154639  0.1248459459534907  0.3748722099628647
  0.5003008362304981  0.1252041714745509  0.6246100850041787
  0.5000063065919924  0.1250980000459619  0.8749932900334372
  0.5001459843657210  0.3745814598786416  0.1245342006588992
  0.4989075902162046  0.3751122636066974  0.3744309913867180
  0.4992761524709947  0.3762001818831103  0.6242520912303876
  0.5004701288780536  0.3755090986123465  0.8745292010217088
  0.4998160862312963  0.6246775922525577  0.1252614155832990
  0.4996996986794922  0.6248139662716707  0.3755995866699569
  0.4996541514702969  0.6249816962329894  0.6256707304613767
  0.4996788980153838  0.6246224162709395  0.8755185133445842
  0.4998436263052382  0.8747317435463459  0.1250090499528531
  0.5001874180161167  0.8749586424668242  0.3751217145876551
  0.5002723020730322  0.8752884810536884  0.6249735057755311
  0.4999746301432680  0.8749914269371046  0.8749197858605001
  0.7502733652917940  0.1250317565860000  0.1249784897949068
  0.7500321602494483  0.1250507844922418  0.3748561989829158
  0.7499389432436360  0.1249799529868066  0.6249233006796351
  0.7501052332316006  0.1249935776983985  0.8750073076388261
  0.7499426914771872  0.3748730716784794  0.1249625301548872
  0.7492039460876071  0.3748804220089041  0.3749331318922057
  0.7492439973164188  0.3750276521233913  0.6249984196444867
  0.7498903686797646  0.3750456968458336  0.8749896538718598
  0.7500568057699605  0.6250792687631193  0.1248961055228736
  0.7498260460473171  0.6251455693278173  0.3750312134781257
  0.7501161774479648  0.6251077813543346  0.6250544616944342
  0.7503100720199058  0.6250575863251091  0.8748990429965952
  0.7501133573289570  0.8750730766380852  0.1249523930855227
  0.7500343557660417  0.8750252909832219  0.3749705062653224
  0.7500884829514505  0.8749228684959486  0.6250018029291559
  0.7500815642086338  0.8749937059578885  0.8749523286662318
  0.1245480567111814  0.2500119527122632  0.1250024843881643
  0.1243893352396214  0.2497140642165031  0.3753340295724455
  0.1244246144723031  0.2493699491069329  0.6259674647614054
  0.1245590800059355  0.2497646589534726  0.8755462781050652
  0.1251492560075534  0.5005556223397882  0.1243285418637522
  0.1254055234304434  0.5007838856386473  0.3747499668407164
  0.1259498716177603  0.5004149754252960  0.6249985428535428
  0.1257920693667504  0.5001932575390160  0.8743943480432315
  0.1246301441650952  0.7505936887969538  0.1244545787772511
  0.1251016923892783  0.7501372723764583  0.3747469174562980
  0.1255734811944963  0.7495998983642288  0.6252413712248848
  0.1251528001271499  0.7501645453851000  0.8748969575822034
  0.1248860032653932  0.0002542518718530  0.1248015167841734
  0.1251839802181831  0.0000472209815757  0.3749390561508416
  0.1253047457063529  0.9996148903838795  0.6252510595921343
  0.1250370812847334  0.9998823227954721  0.8750297708566667
  0.3766921705057601  0.2508816203045616  0.1254116938448684
  0.3774017500121923  0.2511496633641197  0.3756181745037920
  0.3765896364662352  0.2508443604829348  0.6247312261120488
  0.3757339114573650  0.2504769106783328  0.8745780842628749
  0.3755198715874423  0.4998383473337832  0.1262800597912234
  0.3711731630325693  0.4964271765696943  0.3725755084800752
  0.3704736701310708  0.4960364984633465  0.6209486320242611
  0.3740657660869353  0.4994095187618782  0.8749422878545151
  0.3752169895493513  0.7500412089760408  0.1252278922380566
  0.3742827341506041  0.7496365304305923  0.3746790158590653
  0.3743397394543809  0.7491963533647942  0.6240330712657428
  0.3751979370234533  0.7496639791238163  0.8747240362891622
  0.3755018942404902  0.0001574376564217  0.1253803080946652
  0.3753716744127021  0.0001330819796941  0.3751300239097289
  0.3751978023990221  0.0001713338154326  0.6247285618686048
  0.3752041642403586  0.0001142017030802  0.8749961458338307
  0.6251221499016851  0.2497399932631642  0.1248489803763674
  0.6247249503138529  0.2498444081129550  0.3751012625518706
  0.6245845362190242  0.2498307450123476  0.6253570662261169
  0.6250057803184504  0.2497645824949309  0.8750339488473472
  0.6248718343796642  0.5003460221434829  0.1248499782512937
  0.6241618118487774  0.5001371541285543  0.3746888209327302
  0.6245102075060451  0.5000535588179248  0.6247899203744308
  0.6252247007173702  0.5002964598696460  0.8748664234654443
  0.6250293527309135  0.7500697139489322  0.1248137084178153
  0.6250657031515815  0.7499653414759337  0.3749415449713432
  0.6250553380776876  0.7498773871742759  0.6251347890113439
  0.6250402501267065  0.7500141159617215  0.8749010965683878
  0.6250432230540526  0.9999829896524225  0.1247758150999530
  0.6251651606717292  0.0000014382435718  0.3748251710221746
  0.6251297254604793 -0.0000094831706594  0.6251498783739164
  0.6250175578477142  0.0000254231702423  0.8750245992251366
  0.8753532013532631  0.2500721470215067  0.1249350914776105
  0.8749614076934135  0.2501368816659132  0.3750102153064300
  0.8748248573213041  0.2501448251171635  0.6249049246157530
  0.8751490321142757  0.2500438172529771  0.8748753186954632
  0.8747433475521171  0.5000617972086605  0.1251212914588315
  0.8744232061693814  0.5000211816645853  0.3750509882474280
  0.8746975262418448  0.4999398643651077  0.6248647891571341
  0.8749417964472507  0.4999581487791662  0.8749565967286660
  0.8750567465915529  0.7499868064085848  0.1249884880337757
  0.8750060385858276  0.7499682317536723  0.3749308658591740
  0.8751522470129297  0.7499999313861659  0.6248693114444006
  0.8751463618455532  0.7500202665730735  0.8749674765269844
  0.8751467955292541  0.9999782973869892  0.1249893711777887
  0.8750743683028144  0.0000100986325462  0.3749907642722508
  0.8750211681759995  0.0000852949854340  0.6249235315013036
  0.8750253007597328  0.0000352618154485  0.8749354517733730
  0.2014427213700455  0.0636157795225391  0.1878191068422149
  0.2013491690288714  0.0624036238521349  0.4375800646877881
  0.2012557238238354  0.0612622992752095  0.6873760252280829
  0.2013332825428692  0.0625134227495851  0.9376083811840347
  0.2011644561586215  0.3141939655807954  0.1893084793209331
  0.2000229464630353  0.3122460206017880  0.4401458438953948
  0.2002920718716854  0.3108079130446059  0.6897973828217631
  0.2013966021668903  0.3128649290540159  0.9390126900223161
  0.2002711591937910  0.5641888404631641  0.1850106107878617
  0.1999835800814450  0.5627422159455303  0.4346599027949550
  0.2011626510822559  0.5607778061063743  0.6854604578997514
  0.2013995649969768  0.5621606948403414  0.9358096610510922
  0.2012387911499362  0.8137414794891181  0.1874588470127085
  0.2013154806526730  0.8125791805377562  0.4372465490466335
  0.2014612070545392  0.8114053278900423  0.6870426447967130
  0.2013182199428949  0.8125250151299467  0.9372377933690087
  0.4515451077707578  0.0604347749933129  0.1861881465495145
  0.4512719997293322  0.0619555896105550  0.4369504190901707
  0.4512699032721488  0.0636106261135297  0.6876247731638990
  0.4513583863353006  0.0621873063413304  0.9369494914329857
  0.4534074688776324  0.3070863020713426  0.1811651293899633
  0.4523509970358675  0.3089182242856117  0.4325969921880216
  0.4508968975925072  0.3127969333937140  0.6855617595552737
  0.4514556661017243  0.3114629184986568  0.9345508458990781
  0.4508970411026598  0.5622368639922471  0.1893501112183074
  0.4523135466116839  0.5660415988380749  0.4422582355360321
  0.4533998269911406  0.5679100673825223  0.6937309014409047
  0.4514812332140949  0.5636217272455860  0.9404224559362310
  0.4512574275872906  0.8114117928491477  0.1872382257822083
  0.4512480472452144  0.8130009048394309  0.4378677647958187
  0.4515424148149204  0.8145346866564125  0.6886174803598250
  0.4513352081885293  0.8128390666895478  0.9378943997906678
  0.7013976256831354  0.0626501555466607  0.1874263975730625
  0.7013336906879323  0.0625741586650015  0.4374509470117725
  0.7012465345985914  0.0623936111466458  0.6874541866296406
  0.7012980958715727  0.0624485959926789  0.9373982710575643
  0.7014610775158195  0.3128641451676517  0.1879857467988038
  0.7009094529017980  0.3127061895665165  0.4379430967897630
  0.7008559363319484  0.3124324969766074  0.6877607713805369
  0.7013514433255180  0.3125871277129099  0.9377959759830256
  0.7008563880976796  0.5625929396389102  0.1871396575388220
  0.7008815704267456  0.5623151870920623  0.4369417368793300
  0.7014393753242505  0.5621378778463062  0.6868981100568177
  0.7013679685479516  0.5624278625805347  0.9370809554362768
  0.7012481101167554  0.8126365350936522  0.1874707701501485
  0.7013191756105212  0.8124567674076271  0.4374736804257207
  0.7014107310665191  0.8123786403020626  0.6875041604766258
  0.7012794545689057  0.8125851260997135  0.9375143089133543
  0.9513932458782799  0.0623017159920388  0.1874133162021754
  0.9513389267592446  0.0625484255387997  0.4374655708755867
  0.9512349497945254  0.0627944120692707  0.6875178348204684
  0.9512685733495720  0.0625167397074361  0.9374502353650642
  0.9513364621752924  0.3121823314867204  0.1869230869926735
  0.9508364183957719  0.3124630241548699  0.4369491093466145
  0.9508804263608343  0.3127197898732225  0.6869995704602805
  0.9513525130403971  0.3124100289177873  0.9369597561988247
  0.9508680682864445  0.5623645940339362  0.1879220123739066
  0.9508093259063154  0.5626369589719730  0.4379753556824825
  0.9513180187155478  0.5628877505122887  0.6879936096851550
  0.9513535671012219  0.5626428597663501  0.9379497128141282
  0.9512305084511853  0.8122846709809470  0.1874079011205401
  0.9513222025171094  0.8125242474143067  0.4374520983485845
  0.9514127360958360  0.8127647481110036  0.6875105092720698
  0.9512520926754240  0.8125220401594561  0.9374487487987242
  0.0764541541959114  0.0629382020432008  0.1873508687587327
  0.0763919058323761  0.0626271936699198  0.4374296151096512
  0.0762117745214836  0.0622263499384275  0.6874401110519186
  0.0762928832094027  0.0625799126203834  0.9373421364220911
  0.0763666328385816  0.3125929699256399  0.1879787227282635
  0.0756397021593892  0.3125390865162672  0.4377714470039281
  0.0756343684436834  0.3123154667668176  0.6880100443298661
  0.0763691868489187  0.3124395619074908  0.9382049734422492
  0.0756211775686403  0.5628034147696171  0.1867777389115374
  0.0756085623625092  0.5626418440051641  0.4369966886846317
  0.0763445308062496  0.5625330714038835  0.6868180336740302
  0.0763802932547191  0.5627127523033670  0.9365578656796443
  0.0762033427282628  0.8128680800416112  0.1873734245651937
  0.0763628955503806  0.8125478751600598  0.4373623934281694
  0.0764825074287285  0.8121742084841266  0.6874753398986857
  0.0762772006591260  0.8125372915524049  0.9374624013940073
  0.3264753302097374  0.0625159015658534  0.1877744991510311
  0.3263827366375664  0.0622948007095050  0.4375310244184583
  0.3261698168787673  0.0626101828410536  0.6871468560678784
  0.3262150725336915  0.0627808314145715  0.9373683944791180
  0.3269754127471921  0.3128026469385531  0.1860978257669463
  0.3258359366359014  0.3128959626209924  0.4352942355277307
  0.3255038773980733  0.3134083621418650  0.6856318302478458
  0.3264210497037321  0.3130867752000321  0.9363537383998892
  0.3254901544895553  0.5616597679436277  0.1892517197011762
  0.3257981538546432  0.5621651277515968  0.4395924320588310
  0.3269794947209183  0.5622767922519433  0.6887737501678129
  0.3264403351978761  0.5620394983600613  0.9384885228597040
  0.3261429949191172  0.8124812421306965  0.1876729136766329
  0.3263437472249240  0.8127541668891264  0.4373050246255226
  0.3264970530089983  0.8125567487237040  0.6870693863596848
  0.3261939841297309  0.8123839344281689  0.9374254909238924
  0.5764240236454045  0.0620839323606118  0.1876938052138281
  0.5763660760780857  0.0625437617388997  0.4373402501075127
  0.5762480958099255  0.0631014849832272  0.6870003282869870
  0.5762615102146944  0.0627313608940714  0.9373192103811433
  0.5769372115197046  0.3125360933136180  0.1872151092577969
  0.5761079511154708  0.3128517176038613  0.4371542843903274
  0.5756847569635382  0.3131869587038187  0.6868661707370163
  0.5764143921749532  0.3128763155575023  0.9368892426736237
  0.5756938952548544  0.5619316867182049  0.1879498122589980
  0.5760855416377760  0.5622748466643326  0.4376301489256196
  0.5769171411402962  0.5626041101948450  0.6876031384920397
  0.5764357795084615  0.5622448209240244  0.9379305239673362
  0.5762450815964226  0.8119947732692153  0.1878233560926253
  0.5763485482964953  0.8125649754591863  0.4374684213168956
  0.5764369901050083  0.8130221930174651  0.6871384902687122
  0.5762346878599681  0.8124258095895904  0.9374837257565610
  0.8263972389921886  0.0625648467896353  0.1874407037476716
  0.8263288784247367  0.0625364541419818  0.4374645189357008
  0.8262362958245709  0.0625027481468682  0.6874885068552469
  0.8262902168944369  0.0625582094283728  0.9374526903771859
  0.8263913840027445  0.3125536857264697  0.1873997873527205
  0.8258677455895311  0.3125380296352990  0.4374127693784303
  0.8258547816147381  0.3124793654832816  0.6874425625728356
  0.8263411703650531  0.3125237851771323  0.9374179323015287
  0.8258537589486811  0.5626106547235457  0.1874150305934062
  0.8258399580184063  0.5626092887795555  0.4374143828091319
  0.8263752505398599  0.5625361965762582  0.6874622808873152
  0.8263521102965588  0.5625927085343120  0.9374243919327802
  0.8262391444331558  0.8125747190208643  0.1873980626049100
  0.8263110466497958  0.8125788997453922  0.4373977201012756
  0.8264109063466465  0.8125131261883438  0.6874406980310785
  0.8262701746846564  0.8125407079279067  0.9374128606409292
  0.1739811216730847  0.0625516714312766  0.0625192655465741
  0.1739066512042387  0.0629138112111464  0.3126538823312411
  0.1738373414953370  0.0624438456801155  0.5627141698725697
  0.1739219560602387  0.0623936482351625  0.8126506148913961
  0.1742586906848049  0.3128913327201224  0.0640818297380655
  0.1736322155501784  0.3132511048684039  0.3147368195944570
  0.1731997011833630  0.3132051781444916  0.5652715056456974
  0.1738017716087834  0.3133112469955282  0.8147509618142662
  0.1737859779372342  0.5616709078689844  0.0600487196350942
  0.1731543357040724  0.5617367166627518  0.3095242439879182
  0.1736030705104180  0.5616929572747603  0.5600294049749245
  0.1742481059954902  0.5620692184288194  0.8106857647829877
  0.1739089843607604  0.8125879369994353  0.0621632632094362
  0.1738105910984725  0.8125346474840575  0.3121117750611793
  0.1739071219067787  0.8120734340394777  0.5621771567596607
  0.1740130839798381  0.8124550494811377  0.8123316854316669
  0.4238005362255532  0.0620161908929562  0.0617775616281880
  0.4237860685627448  0.0621612501446016  0.3118540414971030
  0.4237783207201074  0.0631385907001879  0.5624614797856781
  0.4237929866936311  0.0625399316055914  0.8122287548493179
  0.4238415975296770  0.3114911367662881  0.0588493764372301
  0.4230629460423699  0.3117248215756135  0.3084712885431849
  0.4227894662362648  0.3128620475176128  0.5596364929511752
  0.4237944267631899  0.3119530090257967  0.8098516004727907
  0.4237763578383983  0.5631250598075636  0.0651004955785725
  0.4227777378685232  0.5621691112459637  0.3152623908153948
  0.4230550611456223  0.5632984109461425  0.5664080242723013
  0.4238577772984869  0.5635517814673745  0.8160931365598466
  0.4237785693515924  0.8124669652189327  0.0626231162104219
  0.4237418993250872  0.8119002726720213  0.3123993282589231
  0.4237928930663424  0.8128437334590881  0.5629708525682329
  0.4238429605258123  0.8129472124877842  0.8130263970568083
  0.6739384182439552  0.0625025486327682  0.0624059442537034
  0.6739381421529795  0.0626474287727371  0.3124391002946775
  0.6738521632820597  0.0625085904462010  0.5624599149114220
  0.6738773896639612  0.0625068871127433  0.8124478142434021
  0.6741419814670945  0.3125437852376877  0.0628132276324136
  0.6733112319458067  0.3128004562736166  0.3129439731627186
  0.6729638094355699  0.3126698865112036  0.5628203152816690
  0.6737928473536294  0.3125702313041034  0.8127083936982987
  0.6737926700399605  0.5624779932182353  0.0621758307639094
  0.6729497104627153  0.5623683272957221  0.3120799119165864
  0.6732769725312191  0.5622348119649886  0.5619334724230193
  0.6741442367406010  0.5624929265098453  0.8120807077750988
  0.6738658384238450  0.8125373764798641  0.0624685781278444
  0.6738450106046300  0.8125529969076072  0.3124736513421753
  0.6739479338257500  0.8124016512897323  0.5624879160447711
  0.6739667889385484  0.8125391265209851  0.8125170349091529
  0.9239386202402928  0.0625137393301917  0.0624614741287916
  0.9239782060725455  0.0624285121603056  0.3124396204057785
  0.9238878113230692  0.0626572420705133  0.5625279673990379
  0.9238594597713985  0.0625167100760756  0.8124589046912413
  0.9240008680990877  0.3123589327399557  0.0619249082946043
  0.9235784248183876  0.3122454491852849  0.3119084895634221
  0.9233462195121426  0.3124163109986467  0.5619032172245196
  0.9237312455294354  0.3122820852322797  0.8118479312389398
  0.9237326026161992  0.5627966938697518  0.0630879112322676
  0.9233345367854525  0.5626715047097475  0.3130174556263440
  0.9235489984621770  0.5628556937910328  0.5630300166933071
  0.9239981128658942  0.5626927753219079  0.8129867627480147
  0.9238559734776008  0.8125384065195354  0.0624578471391472
  0.9238776434363640  0.8124474146642616  0.3124172099705483
  0.9239879559343857  0.8126461233579257  0.5624871660869920
  0.9239585801461689  0.8125423347639403  0.8124624778415016
  0.0489098426625913  0.0625094048845410  0.0623972128391533
  0.0489730476893170  0.0624423506360799  0.3124971785480670
  0.0488969856083417  0.0626213241412002  0.5623318228581918
  0.0488337126868088  0.0626182759542509  0.8122687584066361
  0.0490485931465658  0.3123229338615076  0.0629626051232535
  0.0486910876265167  0.3123473017638055  0.3127079372652212
  0.0484466789202327  0.3125158683717043  0.5625633787299963
  0.0487694054782172  0.3123896285590764  0.8128232945906249
  0.0487558240877077  0.5627422006236641  0.0619523685316916
  0.0484117965419498  0.5626622587642585  0.3122287480457813
  0.0486679008557217  0.5628173519933937  0.5620736727658456
  0.0490369681398891  0.5628092581314007  0.8118455326308772
  0.0488281360007522  0.8124757866220060  0.0625595663782694
  0.0488767033981488  0.8125512511840383  0.3124649744479684
  0.0489837425506722  0.8127179053901527  0.5623129641076766
  0.0489379696494577  0.8125925652730681  0.8124379763223207
  0.2990180864610991  0.0625635896598407  0.0626216805707348
  0.2989356789508055  0.0639411998837286  0.3123014517695069
  0.2988255096451849  0.0640968251776473  0.5619012297268787
  0.2989048121923039  0.0628051875379378  0.8121986243988829
  0.2990422963454149  0.3132096821947905  0.0613806140149426
  0.2980227588132228  0.3190461463698975  0.3082971749616866
  0.2980945753358858  0.3186170093708519  0.5582632806276578
  0.2989627122828862  0.3128930574530244  0.8117043976756267
  0.2989522253606186  0.5621954099634379  0.0631565241572694
  0.2980720930268612  0.5564084685865007  0.3166211272942389
  0.2980037493464363  0.5559660863192362  0.5665856747011652
  0.2990366600612547  0.5618736538851059  0.8134650598701499
  0.2988952647758901  0.8123200221189741  0.0626142317686343
  0.2988000961388517  0.8109614155851825  0.3129292555974237
  0.2989396898898825  0.8111054958324257  0.5625446264476597
  0.2990472648797159  0.8125493879292022  0.8122093520549327
  0.5489920887219989  0.0623897706615232  0.0624604361109103
  0.5489122788965520  0.0622409250561993  0.3124514224121692
  0.5488656736909698  0.0629318712368429  0.5620548718114731
  0.5489532055816051  0.0630114539068653  0.8121153436163999
  0.5492004798109363  0.3127811242471500  0.0614998680800038
  0.5481218044010165  0.3128988993251951  0.3117647131138410