Image 1 O470 O486    1a=5.21            
   1.00000000000000     
    20.8980173784889445    0.0002962233954380   -0.0000389486973079
     0.0002876497099074   20.2925777177251518   -0.0000323364218002
    -0.0000378188948111   -0.0000323395217931   20.2926033171226408
   Hf   O 
   256   510
Direct
  0.0001179771183482  0.0000618644251917  0.9999764021610862
  0.0001794138628656  0.0000889926873180  0.2500815611123610
  0.0001033363509731  0.9999239708877868  0.4997842081130390
  0.0000247121089571  0.9999907220388792  0.7499791662233770
  0.0002221126385715  0.2500761464086090  0.9999342316201426
  0.9997664855530300  0.2500257931996513  0.2498642185817353
  0.9997027622009238  0.2501707935470945  0.4998186397596520
  0.0000773196959000  0.2501559226667195  0.7500193358927889
  0.9999835775787009  0.4997203582583505  0.9998956401559129
  0.9994367940766138  0.4999829743631479  0.2499803680676350
  0.9998028106327063  0.5001374844936934  0.4999352397817315
  0.0001709614528758  0.4998849265210635  0.7498740200462704
  0.0000079735866807  0.7500185009683307  0.9999673387350043
  0.0000063361422507  0.7500521466952934  0.2502146517355724
  0.0002482428113172  0.7500404962786948  0.4999053721353717
  0.0001055858912324  0.7499879547373030  0.7499242812305805
  0.2502208239219665  0.0002132982745039  0.0000710785719178
  0.2502328432721438  0.0004721404560235  0.2500045149397139
  0.2503528947916618  0.9995744346341884  0.4998955147990920
  0.2501512840737482  0.9999316175216161  0.7500394830170758
  0.2504392190422676  0.2499736169065088  0.0002066683752003
  0.2506658946373735  0.2507421686821698  0.2495052845618701
  0.2502890009605273  0.2494901822548742  0.5004792852953434
  0.2503427557980185  0.2500500759841377  0.7503731200103078
  0.2492368257348327  0.5003503716400196  0.0001457045154628
  0.2480701711042606  0.5008021914665614  0.2491672066372103
  0.2506994316215725  0.5005000787278415  0.4992369967195742
  0.2502281485125220  0.4999676278508002  0.7495107393832214
  0.2500077166495588  0.7501839287473958  0.9997941054870693
  0.2492511567463862  0.7498260676099356  0.2496121699501418
  0.2504449175998243  0.7497459558466347  0.4999993050342396
  0.2501993268345123  0.7499148324709098  0.7497995230797253
  0.5002008646847447  0.0003096426882713  0.0000726612253548
  0.5002841170745591  0.0002464185888280  0.2498182812270693
  0.5003179728727863  0.9997861332552228  0.5000222575647909
  0.5002139907901596  0.9998828452663006  0.7500830169114886
  0.5002082500779758  0.2501089440908456  0.0000499158817809
  0.5004077512839503  0.2506656973942533  0.2490202158242849
  0.5006875219869150  0.2491800029039418  0.5007803648438631
  0.5003121125538662  0.2499484478885086  0.7501468436887434
  0.4994161121760796  0.5002973911646758  0.0003372067970166
  0.4967308460646716  0.5002772023910564  0.2497105311271610
  0.5004385329724377  0.5009678318729062  0.4993038849821958
  0.5002884420688236  0.5001326997288352  0.7497252227944220
  0.5001046861806933  0.7503641199822018  0.9996164314848054
  0.4994312565815525  0.7496698747329079  0.2496586573347617
  0.5002229835755448  0.7499005961205639  0.4998717926963063
  0.5002122240248931  0.7498833749690436  0.7497040425889449
  0.7501155920836325  0.0001602216575039  0.9999866899307884
  0.7502546644691532  0.9998119878679231  0.2498754720192144
  0.7500135060291953  0.0002024512114804  0.4998947327778525
  0.7500475895144697  0.9999646670219200  0.7500145091656664
  0.7499847808395630  0.2502162988425415  0.9997425399348637
  0.7495833103303562  0.2498585700970253  0.2493764066513512
  0.7501183279291787  0.2498503613568089  0.5001085819119903
  0.7500104223220032  0.2500644256454278  0.7497775608715549
  0.7502090530950652  0.4996027284991562  0.0000388189608383
  0.7484241561298747  0.4995154291522170  0.2504628078875256
  0.7496193363832084  0.5005879751874364  0.5001398238598206
  0.7502552606399652  0.5000840452538068  0.7501583820929952
  0.7501054011509927  0.7501707688158983  0.9998137113454858
  0.7502178102774468  0.7499425369763064  0.2503409691829485
  0.7500080642025466  0.7502246163499691  0.4997797332563446
  0.7501094613259639  0.7499884179104869  0.7498609274030399
  0.1254640677429764  0.1254221781584196  0.2498421102490465
  0.1247284721686481  0.1245974448621839  0.5002514764706295
  0.1250803096598011  0.1249208752680438  0.7500681651926773
  0.1252969909853546  0.1250211126326331  0.9999425438372060
  0.1250497822774484  0.3748448076552082  0.2497679227540390
  0.1245677371184057  0.3744443975205866  0.5003346482181500
  0.1252881922849088  0.3749016192164831  0.7501062479643016
  0.1254881389587797  0.3748775219771643  0.0003357555524688
  0.1245258097603439  0.6254171190868050  0.2493718249504368
  0.1247760935080231  0.6249389014866230  0.4998776174233150
  0.1250266561013577  0.6250650515541081  0.7497956356161084
  0.1247200560965646  0.6253063692472881  0.9995087869943370
  0.1252885678565524  0.8751865093200241  0.2498530344157705
  0.1250522704586543  0.8748540108863455  0.4999965472412707
  0.1250489025445534  0.8750207839080716  0.7499515138869798
  0.1250864961286899  0.8751456564002141  0.9998420982333003
  0.3746350761345997  0.1258491626593491  0.2503186252240698
  0.3748883330255030  0.1243585229818317  0.5002232272979781
  0.3751089764163371  0.1248949846846334  0.7501833718387864
  0.3752131338401449  0.1254119480850464  0.0003075559689037
  0.3713615651106579  0.3783391915766333  0.2532710884361981
  0.3757747564195174  0.3740286280900306  0.4999322733003246
  0.3753017041189800  0.3750008547242005  0.7499999862371296
  0.3746105815575866  0.3753879460108320  0.0007719488121920
  0.3757786242875135  0.6250087909077001  0.2489486336124483
  0.3758319109045422  0.6241971021578011  0.4991152183385675
  0.3753197434476748  0.6248043631478523  0.7497418087797317
  0.3748655531078471  0.6253056858195636  0.9992941779415692
  0.3753146305144505  0.8750664074676981  0.2499177661154625
  0.3753418867594931  0.8747796042325787  0.4997132431028307
  0.3751149505780793  0.8748973175815576  0.7498272277690304
  0.3750950853510080  0.8752804884400531  0.9997900305079602
  0.6241591477171452  0.1256463183907009  0.2505323428678061
  0.6252559387794698  0.1248177658586230  0.4999334171799133
  0.6251188982381234  0.1249888392231628  0.7500743881482804
  0.6250887637159543  0.1255179206845535  0.0004305445390957
  0.6201814957090757  0.3787885650668887  0.2537203549831634
  0.6258581707885932  0.3743768119251133  0.4993775534859739
  0.6251104552754551  0.3750376473480286  0.7497975275586172
  0.6241512297866285  0.3755948058021355  0.0005838130795064
  0.6258754375726890  0.6244363782992367  0.2493333516138813
  0.6263781852564282  0.6242678809008346  0.4992142258814223
  0.6254846889069345  0.6248027726607348  0.7498870194662858
  0.6252543394066661  0.6250050872432172  0.9997710904375271
  0.6251266150746999  0.8748585605950892  0.2499734771937957
  0.6255025396467399  0.8749271577497504  0.4997300967697264
  0.6251177882956466  0.8748411071122867  0.7497830699123560
  0.6251235217857889  0.8751485197554756  0.9999223862345989
  0.8750494453512736  0.1251209595868029  0.2499065624919953
  0.8751031853857760  0.1249779820094409  0.4999997717150096
  0.8751039146419344  0.1249842156920529  0.7499824272472162
  0.8751539520830917  0.1251274881199685  0.0000586082397013
  0.8740263984930138  0.3751806622447418  0.2501269609004739
  0.8744856932821118  0.3747498231278565  0.4999404816737134
  0.8751085628594006  0.3749313330519036  0.7499364831881239
  0.8750498264388225  0.3749432247404683  0.0000662893561650
  0.8744940429570860  0.6250228154179200  0.2496879288319613
  0.8752377377361021  0.6250284581798938  0.4999550093844295
  0.8751611063887883  0.6251272121430003  0.7499904835359362
  0.8750926561298217  0.6250581806415954  0.9999145855275983
  0.8751172203121723  0.8749932359622729  0.2498741480478162
  0.8751904176782418  0.8750376064324534  0.5000734818886137
  0.8750324622570292  0.8749928174028400  0.7499420514917411
  0.8750958413069791  0.8750355586006220  0.9999299689969345
  0.0002361364625144  0.1249905388402250  0.1250313945906456
  0.0000029474494003  0.1249753676879070  0.3747049021599689
  0.0000205430181267  0.1250026692378321  0.6249571208269997
  0.0001207908405488  0.1250280235890682  0.8750032848378417
  0.9997812054551832  0.3748926712297627  0.1249627166676017
  0.9994260431026971  0.3750407705307537  0.3749327012130376
  0.9999966880586076  0.3752798323736408  0.6249820086251883
  0.0001758757408013  0.3751146273740534  0.8750129568115801
  0.9996949746901730  0.6248544123772936  0.1250972753124230
  0.9997900851125003  0.6250152369430366  0.3750637062920240
  0.0002383152472462  0.6249530868891618  0.6249853037750295
  0.0000923997788547  0.6248583402121113  0.8748862169127992
  0.0000891052662044  0.8750937010731110  0.1251129930549439
  0.0001855612259818  0.8749276429813374  0.3748417601721705
  0.0001295113629277  0.8749687168570864  0.6249518479399002
  0.0000236440378645  0.8750185837811995  0.8749490332606025
  0.2504303512513114  0.1252852039243916  0.1249253643165101
  0.2492661931236665  0.1251969183498458  0.3752722236268621
  0.2500240034454459  0.1248358596827194  0.6251096165675887
  0.2501947291019085  0.1251220885249684  0.8751254977204457
  0.2506712714676666  0.3745638626318007  0.1256711103900087
  0.2480663298756540  0.3742572924175441  0.3757302286769202
  0.2492568851453715  0.3746841012753154  0.6247606955159239
  0.2502158923525710  0.3750780069847555  0.8754052774777071
  0.2502659197993599  0.6255520418582047  0.1244395081093837
  0.2506718771189774  0.6243003206444946  0.3754169251617969
  0.2504389984732941  0.6250604554037528  0.6247086474236528
  0.2503107227955905  0.6249802610096526  0.8745445495886793
  0.2503283176239912  0.8754437804671408  0.1249900378250938
  0.2502455409565342  0.8745528523824410  0.3748904023310812
  0.2502184475473092  0.8748381507262170  0.6248487026411325
  0.2501335455261939  0.8751038298170881  0.8748744666705995
  0.5002261626509144  0.1251422420285070  0.1250411742322345
  0.4994412002722905  0.1253771677689012  0.3752234267637000
  0.5001193576322140  0.1246786549619320  0.6252629589742928
  0.5002164881478581  0.1251596977570298  0.8751950136062200
  0.5004296668100746  0.3740863106831125  0.1256018217157074
  0.4967201553202117  0.3747831095509252  0.3751986347631860
  0.4994241365682938  0.3747361661977514  0.6245741360045070
  0.5002951068405634  0.3749013337764723  0.8751735957855149
  0.5006758327734315  0.6258739516261438  0.1241171075271941
  0.5004324896174898  0.6243878361955959  0.3758815974505818
  0.5002269290534900  0.6249193264310404  0.6248502488965110
  0.5002974395488576  0.6250968580860278  0.8747460802207577
  0.5003075290083495  0.8752490767130812  0.1248607995925320
  0.5003012163894784  0.8747848088268220  0.3750645418225770
  0.5002144776039734  0.8747424940286664  0.6248344381232555
  0.5002037147050311  0.8751714809871558  0.8748076743547651
  0.7499729075609826  0.1248129074509096  0.1251674876442939
  0.7502186891845924  0.1250919412481822  0.3745652396492223
  0.7501119762104638  0.1248670355878161  0.6251057178472325
  0.7501027323367967  0.1250555514026595  0.8750640833719525
  0.7496135658123855  0.3744461696217257  0.1247999689328205
  0.7484309756515130  0.3755084916286229  0.3744623194947640
  0.7502268530317524  0.3753961811158091  0.6248839618218390
  0.7502549310210432  0.3749324693114630  0.8747398005281064
  0.7501080305990834  0.6251711647072578  0.1247927643453605
  0.7496121279264368  0.6251688935619490  0.3755414257189854
  0.7500021518281824  0.6248130424944720  0.6251842146617239
  0.7499953084194537  0.6249546621188286  0.8751371553911886
  0.7499953529552661  0.8748587526076241  0.1250023876451382
  0.7502612868082507  0.8752200813611557  0.3750371915673769
  0.7501097313515810  0.8748982463253793  0.6249446226687247
  0.7500281152130515  0.8750782160819855  0.8749088132049890
  0.1247769352868528  0.2500951998585069  0.1250305830002797
  0.1245489139430021  0.2496233039635624  0.3755362127155719
  0.1247614500717245  0.2497264024801084  0.6253967912525926
  0.1250343823627411  0.2499799304223594  0.8750972159586500
  0.1245199360968746  0.5005852774419878  0.1245518281647919
  0.1250494491365956  0.5001906441738841  0.3750997849988802
  0.1254843792221667  0.5001431262503071  0.6245656506726778
  0.1252651748560797  0.5001172807352022  0.8747613193700318
  0.1247351675303749  0.7504533965898883  0.1246506755675810
  0.1254928046900197  0.7496247795842288  0.3750754570800858
  0.1253007427402410  0.7500308774064401  0.6249661767527943
  0.1250703969614370  0.7501247230551215  0.8748356637525078
  0.1250376287384922  0.0001816944181365  0.1249159526606034
  0.1253148394772590  0.9998468696996354  0.3750521400837959
  0.1251053909672808  0.9998975982153689  0.6250612339338159
  0.1250386821330375  0.0000198144620511  0.8749372551276638
  0.3758098685177795  0.2508660505869433  0.1257839824435548
  0.3757564999122155  0.2500353093940194  0.3759438740596452
  0.3748832287029275  0.2497357435371386  0.6255910566280085
  0.3753360280038454  0.2502589931049149  0.8751537654770724
  0.3757548686969542  0.5009979597769685  0.1249786081043906
  0.3713566752442492  0.4967008693347578  0.3716189879144213
  0.3746420121375233  0.4996635423493178  0.6241329446688216
  0.3753163220404047  0.5000421878325524  0.8748938720058380
  0.3748920363487043  0.7506801172939341  0.1246422937949185
  0.3746452895870279  0.7491863354803393  0.3745615741978565
  0.3752293895941454  0.7496475728389866  0.6245951792545729
  0.3751127270819576  0.7501677919520598  0.8746971568207901
  0.3753352168523989  0.0002511552541401  0.1251738239195476
  0.3753389815697419  0.9999529524471124  0.3749548622248336
  0.3751283249929006  0.9997584246189816  0.6250941040416100
  0.3751239896566028  0.0001640096733308  0.8750541363279583
  0.6263432372266594  0.2507722195236887  0.1256974598496639
  0.6258475747908611  0.2505808043952550  0.3755786852398145
  0.6252441236355606  0.2500219259830928  0.6251365927443068
  0.6254768035691862  0.2502438877910902  0.8750187437877854
  0.6258284445150976  0.5006276266794396  0.1255480700520843
  0.6201953445750139  0.4962527283087900  0.3711972210123702
  0.6241512430099937  0.4994346238487247  0.6243145001990786
  0.6250948846925654  0.4999927995603580  0.8751027314413302
  0.6252386699246126  0.7502029835793776  0.1249680037706192
  0.6241677857932125  0.7493659879532129  0.3743650404668875
  0.6250849900953399  0.7495170541267870  0.6244685076255858
  0.6251121350971226  0.7500403610800954  0.8748206146273660
  0.6254657564186082  0.0000909874494652  0.1251696977467772
  0.6251068803475928  0.0001562262792004  0.3749110223091416
  0.6251345268466125  0.9998609859409325  0.6249799221524440
  0.6251127249945900  0.0001918133606023  0.8751125087304623
  0.8752193649053333  0.2500086544269309  0.1249635782712177
  0.8744925739244441  0.2499905101126704  0.3752174654704733
  0.8751072939805706  0.2499755813465704  0.6249806981785281
  0.8751677515764820  0.2499030222309865  0.8749192739474916
  0.8744892150743925  0.5002817468542513  0.1249606398548600
  0.8740362085806950  0.4998423933981059  0.3747703457508919
  0.8750725352151199  0.5000877053831723  0.6248455565137526
  0.8751074266545826  0.5001002610688003  0.8749598283022726
  0.8750894783558536  0.7500441474986407  0.1249206209412188
  0.8750511746152937  0.7499049288495628  0.3750114030745517
  0.8751559603348907  0.7499279227877236  0.6248749223458544
  0.8750859877631363  0.7500433896185214  0.8749378458318503
  0.8751688505596926  0.9999891755947158  0.1248621069716659
  0.8751113590752891  0.0000200132316561  0.3750282955682232
  0.8751110284946713  0.9999851183826801  0.6249954675631278
  0.8750202252037436  0.0000462363896950  0.8749884424738917
  0.2014687271068236  0.0631178792198509  0.1876453026727125
  0.2013101833753689  0.0617395280212444  0.4372970161887041
  0.2013072740268305  0.0623949787219374  0.6875385389789314
  0.2013696083751710  0.0625725673342131  0.9375002351615426
  0.2005683281995521  0.3135269257980774  0.1884536709746293
  0.1999741543697416  0.3110399634923475  0.4389055570258146
  0.2012864993016858  0.3125964581087748  0.6881678595182679
  0.2014533400421543  0.3127171740879883  0.9380377389283496
  0.1999589400550047  0.5639630162580781  0.1859618823759542
  0.2005786617416474  0.5614702686479301  0.4364133982976466
  0.2014637268474425  0.5622776840905596  0.6868292559974153
  0.2012688304836830  0.5623733970292999  0.9366733251736467
  0.2012903600780961  0.8132411916254351  0.1875311838083353
  0.2014882496128506  0.8118913033944671  0.4372196206316578
  0.2013729362643765  0.8124471020720330  0.6873781393411929
  0.2012898297002013  0.8125904001448969  0.9373116889392539
  0.4514106983358462  0.0619471689207913  0.1870460118299621
  0.4513094743767845  0.0624060794302244  0.4375529320062624
  0.4512964933352470  0.0623707751006894  0.6875539897190400
  0.4514284025701140  0.0622649539423758  0.9371538564386050
  0.4516658727009912  0.3102409513972674  0.1851467785760170
  0.4501221282832696  0.3111878121244125  0.4387817902893335
  0.4512881016649934  0.3123880426278067  0.6875307160643662
  0.4514149457625952  0.3121506802706530  0.9368469009602147
  0.4501287510317851  0.5638662151756707  0.1861279710911754
  0.4516829968251498  0.5648102279508256  0.4397348436254185
  0.4514199404411843  0.5628746802865014  0.6880090115559159
  0.4512903014246157  0.5626494690847098  0.9373551346821472
  0.4512910998132411  0.8126150136746395  0.1872909839742101
  0.4514348562096209  0.8130758062362330  0.4378057817100697
  0.4514347639405327  0.8127349044940189  0.6876735373034525
  0.4512789833178785  0.8126309847432392  0.9372727447479225
  0.7014376914237760  0.0610242684601388  0.1866780725281597
  0.7012936756195960  0.0634106858190347  0.4377199266240824
  0.7012594125555704  0.0625101899672156  0.6874589130090479
  0.7014229496707473  0.0620552323645357  0.9369753471689646
  0.7027222718161363  0.3083600807873483  0.1832759057269115
  0.7006454545215673  0.3127690627050209  0.4371308733311424
  0.7012903861894817  0.3122511319330415  0.6865654252504082
  0.7014526886683788  0.3117381631651811  0.9359428073216773
  0.7006470596338703  0.5622530375529988  0.1877696178347853
  0.7027314179065270  0.5666189282877204  0.4415834160733889
  0.7014581353307242  0.5632942363136936  0.6889508546266099
  0.7012923209557052  0.5627982913756401  0.9383789256417532
  0.7012954914646472  0.8116449248497779  0.1871822137654897
  0.7014797741919034  0.8140012507695669  0.4382302405175494
  0.7014235259263885  0.8129579644891359  0.6879075071427520
  0.7012418798820824  0.8125051017029660  0.9374310206234502
  0.9514361151158394  0.0624621719512962  0.1874485855849733
  0.9512969781183328  0.0626959228220742  0.4375292990167081
  0.9512683783606108  0.0625194959334976  0.6874963440627302
  0.9513593396116453  0.0624603255231549  0.9373980849575567
  0.9511254628105843  0.3124465497711534  0.1873792987035346
  0.9505710902454810  0.3126019048959031  0.4373317696471862
  0.9512848341475771  0.3124685398732022  0.6872765268649290
  0.9514360508184350  0.3125067440585222  0.9373826611146702
  0.9505682912329486  0.5624234970452192  0.1875593221884087
  0.9511433294143923  0.5625911362266052  0.4375173309515694
  0.9514421317968600  0.5625346317507323  0.6875175039446862
  0.9512802204493362  0.5625813919731050  0.9376253655391928
  0.9512873602165517  0.8123672747786331  0.1874061990869106
  0.9514553044279741  0.8125905339092001  0.4374816275638946
  0.9513592142961893  0.8125727621803290  0.6875133416950683
  0.9512491073725513  0.8125244932389847  0.9374364614784592
  0.0765030308087613  0.0629177891963650  0.1873839354548558
  0.0762715683038385  0.0622036574249340  0.4375001701683181
  0.0762906766408227  0.0625886809869547  0.6873730141111659
  0.0763605230849491  0.0625818131657267  0.9374329638586943
  0.0759826778477710  0.3126847433633007  0.1875169569518891
  0.0753494927728366  0.3123315960315667  0.4376283267328587
  0.0762465765475381  0.3124288063500302  0.6877714887828286
  0.0764898779642674  0.3125446992908089  0.9377478133981514
  0.0753382610392678  0.5627993235167762  0.1871553997899230
  0.0759989672106969  0.5624496510789485  0.4372537535333478
  0.0765016662610648  0.5625928171015657  0.6870401285679185
  0.0762447124367402  0.5627080732501115  0.9370039677640714
  0.0762585728478800  0.8128906638785525  0.1873203052435901
  0.0765213166327606  0.8121985693138261  0.4374358189156043
  0.0763559726784249  0.8125357841801076  0.6873988658284875
  0.0762743677984051  0.8125335569166987  0.9374485891485420
  0.3265790721772633  0.0626503488063384  0.1876297390871587
  0.3262603840830837  0.0623303116635158  0.4373132211568744
  0.3262365762137845  0.0627632159241978  0.6871984379009970
  0.3263477522638831  0.0626798275573427  0.9375429972047310
  0.3261521207040090  0.3121733826740503  0.1870438383693172
  0.3249337232028136  0.3132968643208249  0.4366836783242937
  0.3262326202566308  0.3126124356102832  0.6876385536323317
  0.3265689793881161  0.3127627382354558  0.9374977351640642
  0.3249303260008887  0.5618016012974687  0.1881797421242967
  0.3261690112641275  0.5629343953269280  0.4378169330444303
  0.3265769429678423  0.5623302018558931  0.6873442832347357
  0.3262254248091009  0.5624727080228461  0.9371914945971530
  0.3262387117510075  0.8127768508564225  0.1874549261088386
  0.3266010548452845  0.8124727462842615  0.4371442392647172
  0.3263454655739053  0.8124449399412230  0.6872688822289589
  0.3262122215081590  0.8123562462762569  0.9375963169510398
  0.5765184961548973  0.0620787333258978  0.1878834653589363
  0.5762992621507533  0.0629341299639569  0.4370450701754456
  0.5761922624459402  0.0628047660024515  0.6871435582540821
  0.5763391522015258  0.0627725879104755  0.9376071587806811
  0.5768499885216508  0.3121221623213562  0.1869402479986924
  0.5750506379655091  0.3139158359299612  0.4360515922845021
  0.5762855579526924  0.3128245953961108  0.6871085835279632
  0.5765327229625462  0.3130630781278818  0.9369028184774612
  0.5750509842861207  0.5612014387122556  0.1887929534129826
  0.5768659282844666  0.5630094602795441  0.4379070124208014
  0.5765354389636839  0.5620503996264523  0.6879418135762987
  0.5762907317564140  0.5622595392427315  0.9377594868488958
  0.5762883728466027  0.8122257399102092  0.1877187423548136
  0.5765531199581728  0.8130767787029893  0.4368931474351066
  0.5763394925730723  0.8123647339630323  0.6872032550577261
  0.5761715240612427  0.8123187379051880  0.9376553416105678
  0.8264407940081806  0.0622560173837321  0.1876029329850256
  0.8263195031639672  0.0628025706552385  0.4372206855704274
  0.8262441540675390  0.0626705342568401  0.6873071789481048
  0.8263616154260709  0.0626298967700663  0.9375062248484825
  0.8265724173559276  0.3125604196131340  0.1873916406876981
  0.8254123416981183  0.3128350673467019  0.4371126989755901
  0.8263053671584286  0.3127218092524692  0.6871856735581852
  0.8264541770916560  0.3127394444373373  0.9370931073482848
  0.8254171051236333  0.5622802932209952  0.1876948800861705
  0.8266044008970701  0.5625655533953412  0.4374205785985382
  0.8264535886565052  0.5623798104709629  0.6877167588532634
  0.8263075627253114  0.5623973401536798  0.9376223342209580
  0.8263040278789241  0.8123139566720294  0.1876128451052844
  0.8264716854768508  0.8128606463539982  0.4372537731177594
  0.8263609998736741  0.8124878265358175  0.6873713066043826
  0.8262257565193346  0.8124423439147485  0.9375419087952697
  0.1740543010210573  0.0624580818934029  0.0624195881376418
  0.1738893869741807  0.0627112963247972  0.3125810685954110
  0.1739101020785744  0.0625061587888783  0.5626286691752515
  0.1739248275796163  0.0624516598344444  0.8124877031562294
  0.1742233594353277  0.3125197766055855  0.0631524292375370
  0.1729117190089428  0.3128439530208789  0.3136828480329358
  0.1737418886346427  0.3130081513409403  0.5637970264404649
  0.1740272305359852  0.3126185971737276  0.8130009271663846
  0.1736961909879339  0.5619846885346387  0.0610573525594853
  0.1729185966797733  0.5621719521492462  0.3111685126355123
  0.1742334234055758  0.5624920932824927  0.5617182359907089
  0.1740183524601864  0.5623756008271702  0.8118393900741957
  0.1739140524100333  0.8125184629737956  0.0622290309064582
  0.1738915674555380  0.8122798627130783  0.3122544128085534
  0.1740765898276420  0.8125635074500547  0.5624662856372322
  0.1739170467742794  0.8125479458775696  0.8123717086536673
  0.4240032730318005  0.0622001022521368  0.0620734672972238
  0.4237348308574614  0.0629842631168017  0.3125731818832159
  0.4239173138017406  0.0624215567978477  0.5626769380286115
  0.4238898473421182  0.0623902552094771  0.8123674598290785
  0.4241674234599457  0.3121848213531770  0.0615203488376253
  0.4223090541788336  0.3131880340347440  0.3130923421222017
  0.4239952365108357  0.3127074287318387  0.5633136130701707
  0.4240574777376366  0.3124581907326257  0.8122165352837689
  0.4239487104541165  0.5623506039527770  0.0615962497355610
  0.4223168285370240  0.5618400484273063  0.3117911390781823
  0.4241903150657242  0.5628479551164092  0.5633487969818362
  0.4240478397099605  0.5625711289637471  0.8126449705673491
  0.4239121215743837  0.8126029108253217  0.0621663894592034
  0.4237334179994062  0.8120337404047020  0.3122676397160499
  0.4240241409161842  0.8127947995470579  0.5627637012289292
  0.4238797721790249  0.8126193519864415  0.8124585934183328
  0.6739779337949037  0.0622167213849484  0.0620332606978720
  0.6737683145353915  0.0627720337674711  0.3123832282974612
  0.6738900298272195  0.0624740711385925  0.5624974720055602
  0.6738469026617466  0.0623965256466331  0.8122689196376727
  0.6739883821339188  0.3120424728408738  0.0604501606616877
  0.6722797782988342  0.3127943720226607  0.3113302754714844
  0.6739481033155685  0.3120972787169253  0.5615942995992314
  0.6739918572282477  0.3121949402203826  0.8113761204276094
  0.6739157535896028  0.5629483151495549  0.0633436322857508
  0.6723088922097644  0.5622113457192034  0.3135532210660919
  0.6740103752678114  0.5629740224608395  0.5644272278606958
  0.6739863125089690  0.5628639751747514  0.8135518453580168
  0.6738934916342432  0.8125564621063459  0.0624035750459391
  0.6737637604361006  0.8122310240019727  0.3124907371804372
  0.6740060806842799  0.8128019418875435  0.5628579170669824
  0.6738336163688603  0.8126195784031111  0.8126090638254586
  0.9240360494985782  0.0625240776929020  0.0624500609576699
  0.9239094249501946  0.0625713916033665  0.3124849992980624
  0.9238925463253608  0.0625647329053510  0.5625258007458045
  0.9238930244441566  0.0624799198648926  0.8124454467337719
  0.9240903784108976  0.3124289969473255  0.0623558309636746
  0.9227424256034261  0.3125514795761228  0.3123541534144646
  0.9237037185751121  0.3124591630952753  0.5621933261123770
  0.9239944729750558  0.3123861816848579  0.8122730894969651
  0.9236737054020429  0.5626028688660034  0.0627181565873135
  0.9227594135532331  0.5624588692507307  0.3125245021152508
  0.9241079200784259  0.5626296831580775  0.5625663494840025
  0.9239871711315842  0.5626216836256711  0.8126093437710628
  0.9238971100023903  0.8125075269401549  0.0624262109690565
  0.9239116592680934  0.8124819014969256  0.3124440445405210
  0.9240656267987136  0.8125439689877151  0.5624897138744540
  0.9238884088987368  0.8125399652079051  0.8124732393510921
  0.0490170987658589  0.0625210074626431  0.0624503469349423
  0.0489549071837523  0.0624998039256326  0.3124776392572582
  0.0488557819879274  0.0626111104315401  0.5623133692138669
  0.0489074866125477  0.0625740234502760  0.8123926667950165
  0.0490755237173492  0.3125021326623398  0.0626236416125612
  0.0480076393897130  0.3125931543601289  0.3124567901563347
  0.0486749210068121  0.3125280304731671  0.5625270396367732
  0.0489931852337607  0.3125009730114728  0.8126613988614364
  0.0486353423129178  0.5625992368229532  0.0622592917064325
  0.0480196229292570  0.5625818412851161  0.3123043240737924
  0.0490856381084070  0.5626420680577399  0.5621661633616307
  0.0489758420731079  0.5625991986768631  0.8121376492778191
  0.0488645443180718  0.8125070156840826  0.0625113262423632
  0.0489597698230501  0.8126479939978541  0.3123304632868273
  0.0490461531015740  0.8125982470844740  0.5623893664295414
  0.0489035166073544  0.8125174003245085  0.8124539802706899
  0.2990818747631377  0.0625965025644863  0.0625995890179881
  0.2988759341321688  0.0638919044104946  0.3121322466130058
  0.2988753791089725  0.0627992736972208  0.5620705354118902
  0.2989311586664918  0.0627077410291512  0.8123556487612676
  0.2990718325762906  0.3129586550906397  0.0620826252883830
  0.2977262535175627  0.3183842981837616  0.3091006042046624
  0.2989891702888081  0.3125938013816555  0.5623619136908106
  0.2990091015579665  0.3126827925847031  0.8127131052866594
  0.2989407744163451  0.5625008907358958  0.0624831658979415
  0.2977277973730052  0.5566674120521401  0.3157839226755294
  0.2990930271117479  0.5621515781252966  0.5627688825860818
  0.2989998466376298  0.5624504813560678  0.8121169359784050
  0.2988773534156541  0.8123364231847398  0.0627068920778521
  0.2988819597461275  0.8112283204057735  0.3126350403567508
  0.2990938963320555  0.8125544377701860  0.5622033590172477
  0.2989250281552580  0.8124422204978848  0.8124528095824284
  0.5491373861036838  0.0624104990755007  0.0627493836964706
  0.5487279440180061  0.0639360260304213  0.3120513589892468
  0.5489717368497107  0.0630516098771175  0.5619987896885931
  0.5489420607806730  0.0627270577096792  0.8123708307118472
  0.5490749236711716  0.3131557701581796  0.0616100622136937
  0.5468472959990928  0.3189728398151636  0.3087945384446866