&control
  calculation ='scf'
  restart_mode ='from_scratch',
  prefix       ='ZnO',
  outdir='./temp'
  pseudo_dir='./GBRV_PBEsol'
  disk_io='low'
  etot_conv_thr=1.D-7,
  forc_conv_thr=1.D-6,
  verbosity    ='high',
!  tprnfor=.t.
!  tstress=.t.
  nstep=200
!  tefield = .true.
!  dipfield = .true.

 /
&system
  nosym = .true.,
  ibrav= 0,
  nat=  72,
  ntyp= 3,
  tot_charge = 0.0
  ecutwfc =  60,
  ecutrho = 500,
  occupations='smearing', smearing='mv', degauss=0.001,
!  eamp = 0.0
!  edir = 3
!  emaxpos = 0.1
!  eopreg = 0.05

!  input_dft='hse', nqx1=2, nqx2=2, nqx3=1,
!  x_gamma_extrapolation = .true.
!  vdw_corr = DFT-D3
/

&electrons
    mixing_mode = 'plain'
    mixing_beta = 0.5,
    conv_thr =  1.0d-8
!   Startingpot = 'file'
!   Startingwfc = 'file'
/

&IONS
  upscale           = 100.D0,
/

&CELL
  cell_dynamics     = 'bfgs'
  press_conv_thr    = 0.5d0
  cell_dofree = 'all'
/

ATOMIC_SPECIES
Zn 65.38   zn_pbesol_v1.uspp.F.UPF
O  15.999  o_pbesol_v1.2.uspp.F.UPF
Mg 24.305   mg_pbesol_v1.4.uspp.F.UPF

K_POINTS {automatic}
4 4 4 0 0 0 

CELL_PARAMETERS (angstrom)
   9.734857490  -0.011377777  -0.002414087
  -4.877266184   8.443328129   0.002072144
  -0.002584960   0.001066097  10.332525134145

ATOMIC_POSITIONS (crystal)
Zn       0.223644769   0.111421693   0.194127292
Zn       0.222752158   0.111775854   0.694031316
Zn       0.222168301   0.445249733   0.193868671
Zn       0.222012597   0.443646579   0.693610324
Zn       0.221863247   0.777027224   0.193636880
Zn       0.222005325   0.778166398   0.693555605
Zn       0.554095801   0.109852093   0.193529220
Mg       0.555059852   0.110231761   0.696302590
Zn       0.555350535   0.444799382   0.193625698
Mg       0.555397661   0.445317622   0.696239857
Mg       0.555051470   0.778504188   0.195481243
Zn       0.552746537   0.776423461   0.693232489
Zn       0.884879723   0.106598417   0.194380257
Zn       0.891333828   0.113877954   0.694668579
Mg       0.886261512   0.441900183   0.194736805
Zn       0.888810111   0.444434550   0.692646253
Mg       0.886851179   0.778204742   0.195186202
Zn       0.891282832   0.777510379   0.692486127
Zn       0.111634776   0.222926197   0.443147675
Mg       0.112545360   0.222793629   0.946781081
Mg       0.112598521   0.556280345   0.444325557
Mg       0.112115133   0.555933775   0.943480791
Zn       0.112893941   0.889778831   0.443012924
Mg       0.112617483   0.889788852   0.945082629
Zn       0.446020328   0.223280828   0.444276084
Zn       0.443448119   0.222001667   0.943873534
Zn       0.444254428   0.553878652   0.443900130
Zn       0.443804117   0.556778277   0.944741085
Zn       0.443914660   0.890631878   0.444174200
Zn       0.443841742   0.886895400   0.944603504
Zn       0.776677709   0.221274385   0.444255120
Zn       0.779310226   0.223427767   0.944510220
Zn       0.776415451   0.554569276   0.443022387
Zn       0.780455563   0.557034200   0.944233694
Mg       0.778406932   0.890502318   0.446601054
Zn       0.777159351   0.887400138   0.941926728
O        0.222105193   0.110879213   0.002820947
O        0.222503897   0.111658050   0.502225565
O        0.221469090   0.444623497   0.002371700
O        0.222121273   0.444281779   0.502349232
O        0.221292282   0.776852666   0.001942807
O        0.221858015   0.777740377   0.502422164
O        0.555478557   0.110812686   0.001362207
O        0.555374483   0.111341902   0.505284625
O        0.556251118   0.445250541   0.001170995
O        0.555676414   0.444622564   0.505179165
O        0.556342794   0.778145137   0.004623296
O        0.554697249   0.777662294   0.501075516
O        0.888792470   0.110031491   0.002280374
O        0.889739612   0.112329508   0.503191405
O        0.890550631   0.445163954   0.004009543
O        0.889340590   0.444661085   0.500510748
O        0.890200833   0.779083889   0.004001333
O        0.889322910   0.777987108   0.500645489
O        0.110003627   0.221458168   0.250936323
O        0.112332114   0.222566848   0.755515062
O        0.109143191   0.554472901   0.253216288
O        0.111137400   0.555456656   0.752070614
O        0.110329159   0.888452353   0.250965999
O        0.112086526   0.889758194   0.754087173
O        0.445521059   0.222996713   0.252955489
O        0.445592758   0.222961621   0.752202942
O        0.444492838   0.555777160   0.252280444
O        0.444221889   0.555709822   0.753141500
O        0.443563503   0.888618826   0.252660790
O        0.444197940   0.888513698   0.753080793
O        0.776407723   0.220380243   0.252596267
O        0.778048429   0.222708483   0.752751098
O        0.777937994   0.555649541   0.251486331
O        0.778557678   0.555925103   0.752430446
O        0.775716028   0.886793819   0.255905384
O        0.777911448   0.888553481   0.749646141

