&control
  calculation ='nscf'
  restart_mode ='from_scratch',
  prefix       ='ZnO',
  outdir='./temp'
  pseudo_dir='./GBRV_PBEsol'
  disk_io='low'
  etot_conv_thr=1.D-7,
  forc_conv_thr=1.D-6,
  verbosity    ='high',
!  tprnfor=.t.
!  tstress=.t.
  nstep=200
nppstr=8
gdir = 3
lberry=.true.
!  tefield = .true.
!  dipfield = .true.

 /
&system
  nosym = .true.,
  ibrav= 0,
  nat=  72,
  ntyp= 3,
  tot_charge = 0.0
  ecutwfc =  60,
  ecutrho = 500,
!  occupations='smearing', smearing='mv', degauss=0.001,
!  eamp = 0.0
!  edir = 3
!  emaxpos = 0.1
!  eopreg = 0.05

!  input_dft='hse', nqx1=2, nqx2=2, nqx3=1,
!  x_gamma_extrapolation = .true.
!  vdw_corr = DFT-D3
/

&electrons
    mixing_mode = 'plain'
    mixing_beta = 0.5,
    conv_thr =  1.0d-8
!   Startingpot = 'file'
!   Startingwfc = 'file'
/

&IONS
  upscale           = 100.D0,
/

&CELL
  cell_dynamics     = 'bfgs'
  press_conv_thr    = 0.5d0
  cell_dofree = 'all'
/

ATOMIC_SPECIES
Zn 65.38   zn_pbesol_v1.uspp.F.UPF
O  15.999  o_pbesol_v1.2.uspp.F.UPF
Mg 24.305   mg_pbesol_v1.4.uspp.F.UPF

K_POINTS {automatic}
4 4 8 0 0 0 

CELL_PARAMETERS (angstrom)
   9.727221948   0.004474116  -0.000151625
  -4.859720513   8.425856334   0.001991961
  -0.000166011   0.002370583  10.454092985865

ATOMIC_POSITIONS (crystal)
Zn       0.221764621   0.112012202   0.193577133
Zn       0.223496432   0.109557829   0.693665383
Zn       0.222762225   0.444414467   0.192602109
Zn       0.223105931   0.445582244   0.692385139
Zn       0.223091020   0.778527436   0.194478439
Zn       0.222899116   0.777889194   0.694412476
Zn       0.554349429   0.111037112   0.193900824
Zn       0.555580051   0.110205962   0.693635565
Zn       0.555340979   0.445712207   0.191488588
Mg       0.555968785   0.442168589   0.693838225
Mg       0.556545003   0.779829635   0.193436459
Zn       0.555563271   0.777390902   0.691985364
Zn       0.890622957   0.111380290   0.192979705
Zn       0.886519390   0.110438109   0.693234724
Mg       0.889795217   0.446457942   0.195041944
Zn       0.888432913   0.443928046   0.691876133
Zn       0.888898502   0.778806409   0.192942751
Mg       0.890280374   0.777968750   0.694835057
Mg       0.109716263   0.221517612   0.445110751
Zn       0.110196907   0.221642263   0.942434875
Zn       0.112718094   0.555661917   0.443897456
Zn       0.108848595   0.554440875   0.943954617
Zn       0.110961445   0.888574336   0.443510646
Zn       0.112245863   0.889254542   0.943917739
Zn       0.444826567   0.223037745   0.443515163
Zn       0.443898281   0.220573782   0.944213312
Mg       0.444283366   0.555054603   0.442596482
Mg       0.443607508   0.556493108   0.942059566
Zn       0.444372211   0.889915708   0.443773875
Zn       0.444833142   0.888871461   0.944035348
Zn       0.776482528   0.220525820   0.442046326
Mg       0.777756665   0.222592031   0.943777066
Zn       0.776251680   0.556169494   0.442665566
Zn       0.779062803   0.554190158   0.942549200
Zn       0.778563263   0.889428159   0.443354138
Zn       0.776559914   0.889229898   0.943103209
O        0.221784628   0.111256963   0.003995472
O        0.222086300   0.111040339   0.503503982
O        0.221932038   0.444066139   0.002650541
O        0.222941273   0.443705911   0.502802963
O        0.222296477   0.777086433   0.004181529
O        0.222240286   0.777672241   0.504419132
O        0.555944583   0.110815249   0.003883375
O        0.555426013   0.111547934   0.503908492
O        0.555088632   0.444788673   0.001142496
O        0.554942039   0.444698012   0.504657544
O        0.555050111   0.777008186   0.004543670
O        0.555334866   0.777270445   0.501697677
O        0.888622177   0.111202177   0.003088805
O        0.888132815   0.110930065   0.503647229
O        0.888186323   0.443185856   0.005804558
O        0.888574426   0.444234396   0.501457959
O        0.888666213   0.777495996   0.002405138
O        0.889042325   0.777868101   0.505212669
O        0.111463789   0.223101928   0.255536338
O        0.110846595   0.221604650   0.751898742
O        0.111791534   0.556057841   0.253841391
O        0.110522677   0.554917763   0.753682965
O        0.111032384   0.889311939   0.253585156
O        0.111532499   0.888441119   0.754349973
O        0.444503305   0.223652127   0.253430945
O        0.444601216   0.221191581   0.754219370
O        0.445253093   0.557502709   0.252883916
O        0.445504471   0.554747576   0.752615790
O        0.444798305   0.889579965   0.254086011
O        0.444969175   0.888176309   0.753929521
O        0.778130411   0.222924981   0.251929974
O        0.777528984   0.222664590   0.754603384
O        0.777347936   0.556466038   0.253012990
O        0.777939223   0.555507823   0.752622525
O        0.778143741   0.889642018   0.253449748
O        0.777597829   0.888155093   0.753176682

