&control
  calculation ='scf'
  restart_mode ='from_scratch',
  prefix       ='ZnO',
  outdir='./temp'
  pseudo_dir='./GBRV_PBEsol'
  disk_io='low'
  etot_conv_thr=1.D-7,
  forc_conv_thr=1.D-6,
  verbosity    ='high',
!  tprnfor=.t.
!  tstress=.t.
  nstep=200
!  tefield = .true.
!  dipfield = .true.

 /
&system
  nosym = .true.,
  ibrav= 0,
  nat=  72,
  ntyp= 3,
  tot_charge = 0.0
  ecutwfc =  60,
  ecutrho = 500,
  occupations='smearing', smearing='mv', degauss=0.001,
!  eamp = 0.0
!  edir = 3
!  emaxpos = 0.1
!  eopreg = 0.05

!  input_dft='hse', nqx1=2, nqx2=2, nqx3=1,
!  x_gamma_extrapolation = .true.
!  vdw_corr = DFT-D3
/

&electrons
    mixing_mode = 'plain'
    mixing_beta = 0.5,
    conv_thr =  1.0d-8
!   Startingpot = 'file'
!   Startingwfc = 'file'
/

&IONS
  upscale           = 100.D0,
/

&CELL
  cell_dynamics     = 'bfgs'
  press_conv_thr    = 0.5d0
  cell_dofree = 'all'
/

ATOMIC_SPECIES
Zn 65.38   zn_pbesol_v1.uspp.F.UPF
O  15.999  o_pbesol_v1.2.uspp.F.UPF
Mg 24.305   mg_pbesol_v1.4.uspp.F.UPF

K_POINTS {automatic}
4 4 4 0 0 0 

CELL_PARAMETERS (angstrom)
   9.734857490  -0.011377777  -0.002414087
  -4.877266184   8.443328129   0.002072144
  -0.002584960   0.001066097  10.48829184471

ATOMIC_POSITIONS (crystal)
Zn       0.223515369   0.111388984   0.193051367
Zn       0.222745046   0.111752567   0.693099531
Zn       0.222174858   0.445060651   0.192895785
Zn       0.221984092   0.443813056   0.692532779
Zn       0.221943437   0.777238524   0.192759145
Zn       0.221985706   0.777997738   0.692410795
Zn       0.554098407   0.109841623   0.192943523
Mg       0.555037318   0.110180401   0.695115057
Zn       0.555301566   0.444746568   0.193104992
Mg       0.555329837   0.445308561   0.694967191
Mg       0.554907529   0.778462216   0.194235018
Zn       0.552916522   0.776512551   0.692614178
Zn       0.885189124   0.106941226   0.193517942
Zn       0.891211683   0.113677411   0.693504802
Mg       0.886345429   0.441900901   0.193489505
Zn       0.889006393   0.444526674   0.692001222
Mg       0.887121850   0.778302547   0.194051900
Zn       0.891159758   0.777605393   0.691669816
Zn       0.111678340   0.222910347   0.442570110
Mg       0.112562470   0.222818005   0.945575772
Mg       0.112432974   0.556201722   0.443243302
Mg       0.112219374   0.555997210   0.942785729
Zn       0.112804973   0.889751128   0.442358937
Mg       0.112675247   0.889786653   0.943924745
Zn       0.445895357   0.223193319   0.443098987
Zn       0.443655771   0.222094505   0.943030576
Zn       0.444256247   0.554019568   0.442965880
Zn       0.443914734   0.556627352   0.943676554
Zn       0.443948344   0.890501651   0.443246559
Zn       0.443931384   0.887139273   0.943551901
Zn       0.776757042   0.221452771   0.443319237
Zn       0.778990270   0.223199238   0.943453271
Zn       0.776564612   0.554591403   0.442067468
Zn       0.780025832   0.556814597   0.943104165
Mg       0.778294745   0.890337463   0.445169986
Zn       0.777122768   0.887488006   0.941358379
O        0.222113204   0.110886436   0.003749235
O        0.222584309   0.111659854   0.503315991
O        0.221578869   0.444573531   0.003407901
O        0.222151442   0.444360061   0.503317514
O        0.221408547   0.777005851   0.003056070
O        0.221905644   0.777720925   0.503334698
O        0.555446270   0.110808340   0.002792018
O        0.555351973   0.111335482   0.505784213
O        0.556165712   0.445178821   0.002644287
O        0.555661602   0.444586409   0.505591422
O        0.556133844   0.778035547   0.005118658
O        0.554776029   0.777686802   0.502480707
O        0.888859910   0.110215504   0.003398568
O        0.889567110   0.112151473   0.504052394
O        0.890360682   0.445073457   0.004489926
O        0.889267141   0.444638053   0.501906381
O        0.890198669   0.778939524   0.004580901
O        0.889210526   0.777948203   0.501899530
O        0.110119859   0.221479373   0.252373828
O        0.112275376   0.222603790   0.755980047
O        0.109255252   0.554517672   0.253866566
O        0.111243200   0.555529098   0.753114256
O        0.110444663   0.888568186   0.252342683
O        0.112122216   0.889692151   0.754636674
O        0.445333545   0.222874678   0.253843249
O        0.445606322   0.222967142   0.753326408
O        0.444464646   0.555840417   0.253353635
O        0.444169050   0.555635398   0.754095606
O        0.443581183   0.888571932   0.253742033
O        0.444129392   0.888517108   0.754053718
O        0.776514587   0.220501351   0.253664055
O        0.778037269   0.222608762   0.753706003
O        0.778076048   0.555702628   0.252530127
O        0.778456435   0.555897389   0.753336664
O        0.775741327   0.886847467   0.256171962
O        0.777983734   0.888659379   0.751165964

