&control
  calculation ='nscf'
  restart_mode ='from_scratch',
  prefix       ='ZnO',
  outdir='./temp'
  pseudo_dir='./GBRV_PBEsol'
  disk_io='low'
  etot_conv_thr=1.D-7,
  forc_conv_thr=1.D-6,
  verbosity    ='high',
!  tprnfor=.t.
!  tstress=.t.
  nstep=200
nppstr=8
gdir = 3
lberry=.true.
!  tefield = .true.
!  dipfield = .true.

 /
&system
  nosym = .true.,
  ibrav= 0,
  nat=  72,
  ntyp= 3,
  tot_charge = 0.0
  ecutwfc =  60,
  ecutrho = 500,
!  occupations='smearing', smearing='mv', degauss=0.001,
!  eamp = 0.0
!  edir = 3
!  emaxpos = 0.1
!  eopreg = 0.05

!  input_dft='hse', nqx1=2, nqx2=2, nqx3=1,
!  x_gamma_extrapolation = .true.
!  vdw_corr = DFT-D3
/

&electrons
    mixing_mode = 'plain'
    mixing_beta = 0.5,
    conv_thr =  1.0d-8
!   Startingpot = 'file'
!   Startingwfc = 'file'
/

&IONS
  upscale           = 100.D0,
/

&CELL
  cell_dynamics     = 'bfgs'
  press_conv_thr    = 0.5d0
  cell_dofree = 'all'
/

ATOMIC_SPECIES
Zn 65.38   zn_pbesol_v1.uspp.F.UPF
O  15.999  o_pbesol_v1.2.uspp.F.UPF
Mg 24.305   mg_pbesol_v1.4.uspp.F.UPF

K_POINTS {automatic}
4 4 8 0 0 0 

CELL_PARAMETERS (angstrom)
   9.724698783   0.000056463   0.000169329
  -4.862285454   8.421506504  -0.000214622
   0.000182595  -0.000161180  10.358814849025

ATOMIC_POSITIONS (crystal)
Zn       0.222917552   0.112601606   0.193931119
Zn       0.554856962   0.110051792   0.193495121
Zn       0.889524637   0.112593270   0.192212536
Zn       0.222181667   0.444354352   0.193023725
Zn       0.555476804   0.444335800   0.194518941
Zn       0.889100864   0.444447906   0.194373203
Zn       0.224052282   0.777468862   0.193659887
Zn       0.553411895   0.777456943   0.193837494
Zn       0.888579483   0.776715224   0.191568151
Zn       0.220640461   0.109752211   0.694248537
Zn       0.555934959   0.113025643   0.694261529
Zn       0.556145909   0.444306497   0.694818905
Zn       0.888110624   0.444234160   0.694872003
Zn       0.220146511   0.778219392   0.693723698
Zn       0.559429863   0.778307466   0.694030894
Zn       0.110574211   0.222781327   0.443808886
Zn       0.444792131   0.222460440   0.444805283
Zn       0.777754904   0.222188270   0.443923405
Zn       0.111191866   0.555340701   0.444418563
Zn       0.444416733   0.555507675   0.444335261
Zn       0.778171767   0.556172035   0.443708051
Zn       0.110020089   0.887929283   0.442200116
Zn       0.778516657   0.888846323   0.441454349
Zn       0.111476819   0.221860670   0.942627194
Zn       0.444238918   0.222862666   0.944547401
Zn       0.777615512   0.223213971   0.943927896
Zn       0.111218086   0.556119302   0.943564871
Zn       0.445007350   0.555954203   0.944035641
Zn       0.777991393   0.555615562   0.944151476
Zn       0.443856344   0.887564550   0.942337753
Mg       0.887406317   0.109785242   0.694481910
Mg       0.223710590   0.445149273   0.695117877
Mg       0.888413367   0.777209443   0.693690057
Mg       0.444565088   0.888969259   0.446024560
Mg       0.113050789   0.889105569   0.945309470
Mg       0.775548412   0.887447729   0.945341536
O        0.222172069   0.111134353   0.003153640
O        0.554825212   0.110291915   0.002584227
O        0.888453957   0.110711528   0.001151373
O        0.222092733   0.444138910   0.001840484
O        0.555971076   0.444771477   0.003627969
O        0.889169425   0.444817146   0.003534972
O        0.222965909   0.777676868   0.003074319
O        0.554498706   0.777465123   0.003326143
O        0.889866496   0.778834168   0.000610259
O        0.221553373   0.110522452   0.502632421
O        0.555649660   0.111191034   0.503316474
O        0.888334491   0.110467239   0.503808982
O        0.222441751   0.444603883   0.504646747
O        0.555850595   0.444671709   0.503485865
O        0.888828329   0.444441678   0.503271428
O        0.221929274   0.777998527   0.502634463
O        0.556530310   0.778206026   0.502646993
O        0.888900119   0.778126018   0.503405269
O        0.110869491   0.222548356   0.252979584
O        0.444738816   0.222178031   0.253529291
O        0.777434123   0.222001136   0.252823228
O        0.111380007   0.555344087   0.253267631
O        0.444016302   0.555266882   0.253238823
O        0.777935068   0.555717258   0.252976212
O        0.111273626   0.888730574   0.250862445
O        0.444613567   0.889214513   0.255678919
O        0.777790206   0.889003943   0.250215706
O        0.110188242   0.222523512   0.751601383
O        0.443196943   0.221968253   0.753482729
O        0.777795863   0.222049339   0.753055677
O        0.111289998   0.555434161   0.752666076
O        0.445370793   0.556057754   0.753203274
O        0.777985216   0.555779883   0.753081195
O        0.109630312   0.888347829   0.754953431
O        0.444608213   0.888492232   0.750773478
O        0.779801910   0.889317586   0.755071592

