p21c    M1 vo4 O12                      
   1.00000000000000     
    10.2291446579426371    0.0095001344091717    0.0248096371436556
     0.0096551861906090   10.3219458556564021   -0.0680341954949698
    -0.8808044051290642   -0.0352437582915986    5.2142392332761807
   Hf   O       F
    16    31    1
Direct
  0.4925578477462593  0.4904716776304442  0.0179544525193813
  0.4986879545631451  0.0009683501976611 -0.0097612797467710
 -0.0012193890611972  0.5002967814701151  0.0061003160706120
  0.0008344736439959  0.0011250492033135 -0.0006852470777148
  0.2230919886732747  0.0443670645265939  0.5833671902239401
  0.2249842539170873  0.5422146637323009  0.5877259912673606
  0.7299970921577483  0.0467185596206540  0.5750734419211460
  0.7350401273905581  0.5321370307829953  0.5707473993453339
  0.2201772382100539  0.2491025303304960  0.0848990666337938
  0.2194357638203301  0.7507389827143928  0.0815881679036694
  0.7229501898854028  0.2507474579978102  0.0809555184909968
  0.7344512946632443  0.7582191528989511  0.1164616122919420
  0.4995162312424936  0.2880066427116148  0.5047876160695957
  0.4886185588871306  0.8007960705775253  0.4697081512622606
  0.0047467679767720  0.2902654818723700  0.4990404744456962
  0.0069884702053069  0.7927621387462629  0.5077887101989801
  0.1373330323322814  0.3944849384320306  0.8189280669853675
  0.1390813983289659  0.8930460054858148  0.8125122434153654
  0.6340215365290762  0.3969143146992423  0.8130889275036335
  0.6206693917528928  0.8500138079427469  0.8088909068160818
  0.1363723442634587  0.4016292420414760  0.3138522349903081
  0.1396416261393490  0.9005920192876039  0.3132458309375059
  0.6361094617120450  0.3948179027876757  0.3142250754699702
  0.6372447227971269  0.9049671905698803  0.3097219465903099
  0.0840886499504251  0.1504843458205994  0.7729081278758201
  0.0862154482064890  0.6491980182734355  0.7777149301114393
  0.5883053928809224  0.1451263077626498  0.7662469827415188
  0.0841372403340752  0.1432194115645494  0.2709714480024488
  0.0848041014603905  0.6427910552819038  0.2723913509036231
  0.5851354195404824  0.1442874088321059  0.2647814635358745
  0.5865595436185466  0.6417744797271587  0.2849429962528957
  0.3990426039908711  0.4398916857252905  0.6454588344236466
  0.3969678183109928  0.9457941058591405  0.6266367971436613
  0.9006732312974715  0.4365195676030788  0.6380408907210130
  0.8954883054570121  0.9344920018250358  0.6394298374743670
  0.3923868596961839  0.3555382789093763  0.1477134587398427
  0.3905356280938215  0.8615578598806002  0.1293822670392318
  0.8943622811858554  0.3581462616569726  0.1382662255754019
  0.9008525797671550  0.8561557023107030  0.1449302271165556
  0.3281002711137124  0.1068201591629551  0.9488127646580498
  0.3343907492652120  0.6121541310771422  0.9438428751929605
  0.8247630821537787  0.1010740906518049  0.9471624766487284
  0.7980479958050107  0.6031648542525109  0.9329219372750250
  0.3233455614603066  0.1917318155386606  0.4509020611303274
  0.3284122214435337  0.6859519785381428  0.4441021468282471
  0.8285217248862361  0.1886845376792183  0.4436454978389667
  0.8363003643047234  0.6822270108070565  0.4539296202415983
     0.585512052         0.649533911         0.769747572

  0.00000000E+00  0.00000000E+00  0.00000000E+00
  0.00000000E+00  0.00000000E+00  0.00000000E+00
  0.00000000E+00  0.00000000E+00  0.00000000E+00
  0.00000000E+00  0.00000000E+00  0.00000000E+00
  0.00000000E+00  0.00000000E+00  0.00000000E+00
  0.00000000E+00  0.00000000E+00  0.00000000E+00
  0.00000000E+00  0.00000000E+00  0.00000000E+00
  0.00000000E+00  0.00000000E+00  0.00000000E+00
  0.00000000E+00  0.00000000E+00  0.00000000E+00
  0.00000000E+00  0.00000000E+00  0.00000000E+00
  0.00000000E+00  0.00000000E+00  0.00000000E+00
  0.00000000E+00  0.00000000E+00  0.00000000E+00
  0.00000000E+00  0.00000000E+00  0.00000000E+00
  0.00000000E+00  0.00000000E+00  0.00000000E+00
  0.00000000E+00  0.00000000E+00  0.00000000E+00
  0.00000000E+00  0.00000000E+00  0.00000000E+00
  0.00000000E+00  0.00000000E+00  0.00000000E+00
  0.00000000E+00  0.00000000E+00  0.00000000E+00
  0.00000000E+00  0.00000000E+00  0.00000000E+00
  0.00000000E+00  0.00000000E+00  0.00000000E+00
  0.00000000E+00  0.00000000E+00  0.00000000E+00
  0.00000000E+00  0.00000000E+00  0.00000000E+00
  0.00000000E+00  0.00000000E+00  0.00000000E+00
  0.00000000E+00  0.00000000E+00  0.00000000E+00
  0.00000000E+00  0.00000000E+00  0.00000000E+00
  0.00000000E+00  0.00000000E+00  0.00000000E+00
  0.00000000E+00  0.00000000E+00  0.00000000E+00
  0.00000000E+00  0.00000000E+00  0.00000000E+00
  0.00000000E+00  0.00000000E+00  0.00000000E+00
  0.00000000E+00  0.00000000E+00  0.00000000E+00
  0.00000000E+00  0.00000000E+00  0.00000000E+00
  0.00000000E+00  0.00000000E+00  0.00000000E+00
  0.00000000E+00  0.00000000E+00  0.00000000E+00
  0.00000000E+00  0.00000000E+00  0.00000000E+00
  0.00000000E+00  0.00000000E+00  0.00000000E+00
  0.00000000E+00  0.00000000E+00  0.00000000E+00
  0.00000000E+00  0.00000000E+00  0.00000000E+00
  0.00000000E+00  0.00000000E+00  0.00000000E+00
  0.00000000E+00  0.00000000E+00  0.00000000E+00
  0.00000000E+00  0.00000000E+00  0.00000000E+00
  0.00000000E+00  0.00000000E+00  0.00000000E+00
  0.00000000E+00  0.00000000E+00  0.00000000E+00
  0.00000000E+00  0.00000000E+00  0.00000000E+00
  0.00000000E+00  0.00000000E+00  0.00000000E+00
  0.00000000E+00  0.00000000E+00  0.00000000E+00
  0.00000000E+00  0.00000000E+00  0.00000000E+00
  0.00000000E+00  0.00000000E+00  0.00000000E+00
