p21c M1 vo3 O21                         
   1.00000000000000     
    10.2554721893127638   -0.0080630900407791    0.0149643032057261
    -0.0081483282145337   10.3734589240890465    0.0119123829768714
    -0.8881562059547023    0.0067272436002868    5.2378810799136559
   Hf   O 
    16    31
Direct
  0.4967466078813645  0.4952132557319953  0.0084990197910940
  0.4996100513913589  0.0000182882743348 -0.0005629614367858
  0.9989554480497116  0.4997735572209482 -0.0001703275070500
  0.0000785041197300 -0.0000392841695663 -0.0012562750459057
  0.2232803112535587  0.0434011746628371  0.5813368759489421
  0.2233327641789007  0.5415258750261407  0.5840633007443627
  0.7233873236241253  0.0415006766816588  0.5839249902475013
  0.7219084283671753  0.5427396592059966  0.5868793684523698
  0.2249759071576450  0.2516366548642396  0.0832763909757253
  0.2233910989349485  0.7494625753138343  0.0840636221435809
  0.7227933573190699  0.2484897333676825  0.0839111784098534
  0.7226103139281171  0.7489923859352901  0.0840075600192897
  0.4984638108794001  0.2915003505885476  0.5042644346308366
  0.4995482626199900  0.7922715453516617  0.5009765365983887
  0.9987893712047572  0.2924376461616269  0.4998077369147169
  0.9991713551983123  0.7922351802830189  0.4987039537375285
  0.1374061729676044  0.3925700546161728  0.8148581178444606
  0.1381846335430692  0.8927042839651378  0.8129953882215106
  0.6372505588229048  0.3929406155974748  0.8205717928575494
  0.6368624408304868  0.8922991223778749  0.8146725957602470
  0.1371882869273219  0.3997461377383298  0.3138525306892688
  0.1375215630885760  0.8998442951807295  0.3126208520877409
  0.6296763795085786  0.3996227465998146  0.3158594430332382
  0.6371764628824703  0.8989650577280787  0.3142680758120863
  0.0858256518718960  0.1494547308521237  0.7666388592825659
  0.0865537469847878  0.6497488438524250  0.7688228446309701
  0.5870887906295394  0.1479458982579282  0.7703667490997526
  0.5858677412919391  0.6504308444313668  0.7698369852490334
  0.0871823394218274  0.1428360053110556  0.2680696837965593
  0.0855877758813441  0.6421878791636573  0.2692334933205520
  0.5860035025280780  0.1410550302048637  0.2707019155002326
  0.5849286751844763  0.6413935808242914  0.2701402689916837
  0.3940413673019779  0.4322535457854780  0.6488956086367227
  0.3956055760787632  0.9376922897054752  0.6369930264612921
  0.8945140929505304  0.4354488633791825  0.6401929372937197
  0.8956595691659518  0.9356925355648511  0.6391426622625581
  0.3951522466739996  0.8553410559912462  0.1368535346439233
  0.8941094763280538  0.3569305847407331  0.1409776548802266
  0.8952595654867475  0.8561149979558111  0.1387205377771288
  0.3296699258143937  0.1110393143120307  0.9399822349773258
  0.3261106701403813  0.6009057583068392  0.9533746569639437
  0.8283504011713030  0.1066110124301980  0.9447665360632832
  0.8278845821935366  0.6066905272344822  0.9441154765123457
  0.3277822447410135  0.1881997840274529  0.4370502690390983
  0.3271787283605659  0.6865855994132134  0.4494912066344386
  0.8271234168167716  0.1861661811881566  0.4448452816606965
  0.8274322403029521  0.6851147127632990  0.4444207483914062
 
  0.00000000E+00  0.00000000E+00  0.00000000E+00
  0.00000000E+00  0.00000000E+00  0.00000000E+00
  0.00000000E+00  0.00000000E+00  0.00000000E+00
  0.00000000E+00  0.00000000E+00  0.00000000E+00
  0.00000000E+00  0.00000000E+00  0.00000000E+00
  0.00000000E+00  0.00000000E+00  0.00000000E+00
  0.00000000E+00  0.00000000E+00  0.00000000E+00
  0.00000000E+00  0.00000000E+00  0.00000000E+00
  0.00000000E+00  0.00000000E+00  0.00000000E+00
  0.00000000E+00  0.00000000E+00  0.00000000E+00
  0.00000000E+00  0.00000000E+00  0.00000000E+00
  0.00000000E+00  0.00000000E+00  0.00000000E+00
  0.00000000E+00  0.00000000E+00  0.00000000E+00
  0.00000000E+00  0.00000000E+00  0.00000000E+00
  0.00000000E+00  0.00000000E+00  0.00000000E+00
  0.00000000E+00  0.00000000E+00  0.00000000E+00
  0.00000000E+00  0.00000000E+00  0.00000000E+00
  0.00000000E+00  0.00000000E+00  0.00000000E+00
  0.00000000E+00  0.00000000E+00  0.00000000E+00
  0.00000000E+00  0.00000000E+00  0.00000000E+00
  0.00000000E+00  0.00000000E+00  0.00000000E+00
  0.00000000E+00  0.00000000E+00  0.00000000E+00
  0.00000000E+00  0.00000000E+00  0.00000000E+00
  0.00000000E+00  0.00000000E+00  0.00000000E+00
  0.00000000E+00  0.00000000E+00  0.00000000E+00
  0.00000000E+00  0.00000000E+00  0.00000000E+00
  0.00000000E+00  0.00000000E+00  0.00000000E+00
  0.00000000E+00  0.00000000E+00  0.00000000E+00
  0.00000000E+00  0.00000000E+00  0.00000000E+00
  0.00000000E+00  0.00000000E+00  0.00000000E+00
  0.00000000E+00  0.00000000E+00  0.00000000E+00
  0.00000000E+00  0.00000000E+00  0.00000000E+00
  0.00000000E+00  0.00000000E+00  0.00000000E+00
  0.00000000E+00  0.00000000E+00  0.00000000E+00
  0.00000000E+00  0.00000000E+00  0.00000000E+00
  0.00000000E+00  0.00000000E+00  0.00000000E+00
  0.00000000E+00  0.00000000E+00  0.00000000E+00
  0.00000000E+00  0.00000000E+00  0.00000000E+00
  0.00000000E+00  0.00000000E+00  0.00000000E+00
  0.00000000E+00  0.00000000E+00  0.00000000E+00
  0.00000000E+00  0.00000000E+00  0.00000000E+00
  0.00000000E+00  0.00000000E+00  0.00000000E+00
  0.00000000E+00  0.00000000E+00  0.00000000E+00
  0.00000000E+00  0.00000000E+00  0.00000000E+00
  0.00000000E+00  0.00000000E+00  0.00000000E+00
  0.00000000E+00  0.00000000E+00  0.00000000E+00
  0.00000000E+00  0.00000000E+00  0.00000000E+00
