p21c M1 vo3 O21                         
   1.00000000000000     
    10.1993236953501647    0.0389940393346747    0.0488576572579545
     0.0393540185947515   10.3326246291418702    0.0103950477126502
    -0.8658522964625830    0.0019416018536561    5.1743830560017763
   Hf   O 
    16    31
Direct
  0.5095319773124134  0.5164990134088011 -0.0180851213202085
  0.4988856098697158  0.0012286057271202  0.0038848225209913
 -0.0015943676645663  0.5030873171988126  0.0016723055874522
 -0.0010401661840765  0.9949399587449832  0.9972602223964202
  0.2247026457263209  0.0433146873223978  0.5795078537319757
  0.2233801668662084  0.5376975229492255  0.5882529256630734
  0.7256685370753373  0.0388891978627898  0.5869401614789419
  0.7248573934933592  0.5435007692448696  0.5795531481876716
  0.2021024233826566  0.2428754004167650  0.0733142615125662
  0.2243204757364865  0.7481217084116382  0.0894210082384407
  0.7247631664997908  0.2484430308314735  0.0880161598918014
  0.7274217259737418  0.7548952259265250  0.0885744693177571
  0.5055322057125685  0.2805876040697521  0.5275714140649037
  0.4986938001064360  0.7953462048616903  0.4981823895684631
  0.9956813105509711  0.2932622303249910  0.4998184474615517
  0.0043855915551998  0.7903150501576700  0.5027184306371848
  0.1349172535478079  0.3892453470732244  0.8107881947581325
  0.1431285603736157  0.8925758327952847  0.8098055192456435
  0.6436854314986881  0.3923987893243374  0.8078175844839526
  0.6368408488668356  0.8931815516605240  0.8128916476234270
  0.1400221155522305  0.3978022427673827  0.3095297243618358
  0.1412638954551694  0.8992303042742589  0.3100724157089598
  0.5995506653853631  0.3967135521743436  0.2884141575124475
  0.6381280093810139  0.9014749998636664  0.3116477271684582
  0.0808775852111295  0.1468052655949143  0.7686983585189948
  0.0893855119887669  0.6489797790633122  0.7783776294253121
  0.5885690107921426  0.1487374512479735  0.7859398993801776
  0.5850835773469680  0.6521736460766628  0.7693048366691416
  0.0817031650075517  0.1393017033604485  0.2706115055405104
  0.0866332686443341  0.6399964919354267  0.2771426193624102
  0.5828079274261445  0.1416424713433508  0.2795529209330790
  0.5897500364188438  0.6454696511922031  0.2726044454816806
  0.3946272377775817  0.4252154735449471  0.6574953219257427
  0.3984055902523685  0.9448310732651213  0.6316888416567050
  0.8974100294716164  0.4438393758862635  0.6257508407531341
  0.8996999951826271  0.9404932578141791  0.6281099169284393
  0.3959413446361589  0.8527784179566406  0.1307760261624896
  0.8970797394405667  0.3519369872075220  0.1315206350038709
  0.9024933361522919  0.8471838175355783  0.1303188383837171
  0.3319034396106329  0.1241072593813770  0.9282138944398654
  0.3253380314337916  0.5862823445051963  0.9762895733539347
  0.8254107852638728  0.0989450601775082  0.9595821779025339
  0.8215028706553326  0.6004528437779055  0.9497524350658121
  0.3276097559847886  0.1953260919295747  0.4132479750213914
  0.3285121587841467  0.6868543964317264  0.4647494067182041
  0.8197551385745633  0.1965220247670433  0.4606589128936481
  0.8278929298704972  0.6921901326126316  0.4571004916773748
 
  0.00000000E+00  0.00000000E+00  0.00000000E+00
  0.00000000E+00  0.00000000E+00  0.00000000E+00
  0.00000000E+00  0.00000000E+00  0.00000000E+00
  0.00000000E+00  0.00000000E+00  0.00000000E+00
  0.00000000E+00  0.00000000E+00  0.00000000E+00
  0.00000000E+00  0.00000000E+00  0.00000000E+00
  0.00000000E+00  0.00000000E+00  0.00000000E+00
  0.00000000E+00  0.00000000E+00  0.00000000E+00
  0.00000000E+00  0.00000000E+00  0.00000000E+00
  0.00000000E+00  0.00000000E+00  0.00000000E+00
  0.00000000E+00  0.00000000E+00  0.00000000E+00
  0.00000000E+00  0.00000000E+00  0.00000000E+00
  0.00000000E+00  0.00000000E+00  0.00000000E+00
  0.00000000E+00  0.00000000E+00  0.00000000E+00
  0.00000000E+00  0.00000000E+00  0.00000000E+00
  0.00000000E+00  0.00000000E+00  0.00000000E+00
  0.00000000E+00  0.00000000E+00  0.00000000E+00
  0.00000000E+00  0.00000000E+00  0.00000000E+00
  0.00000000E+00  0.00000000E+00  0.00000000E+00
  0.00000000E+00  0.00000000E+00  0.00000000E+00
  0.00000000E+00  0.00000000E+00  0.00000000E+00
  0.00000000E+00  0.00000000E+00  0.00000000E+00
  0.00000000E+00  0.00000000E+00  0.00000000E+00
  0.00000000E+00  0.00000000E+00  0.00000000E+00
  0.00000000E+00  0.00000000E+00  0.00000000E+00
  0.00000000E+00  0.00000000E+00  0.00000000E+00
  0.00000000E+00  0.00000000E+00  0.00000000E+00
  0.00000000E+00  0.00000000E+00  0.00000000E+00
  0.00000000E+00  0.00000000E+00  0.00000000E+00
  0.00000000E+00  0.00000000E+00  0.00000000E+00
  0.00000000E+00  0.00000000E+00  0.00000000E+00
  0.00000000E+00  0.00000000E+00  0.00000000E+00
  0.00000000E+00  0.00000000E+00  0.00000000E+00
  0.00000000E+00  0.00000000E+00  0.00000000E+00
  0.00000000E+00  0.00000000E+00  0.00000000E+00
  0.00000000E+00  0.00000000E+00  0.00000000E+00
  0.00000000E+00  0.00000000E+00  0.00000000E+00
  0.00000000E+00  0.00000000E+00  0.00000000E+00
  0.00000000E+00  0.00000000E+00  0.00000000E+00
  0.00000000E+00  0.00000000E+00  0.00000000E+00
  0.00000000E+00  0.00000000E+00  0.00000000E+00
  0.00000000E+00  0.00000000E+00  0.00000000E+00
  0.00000000E+00  0.00000000E+00  0.00000000E+00
  0.00000000E+00  0.00000000E+00  0.00000000E+00
  0.00000000E+00  0.00000000E+00  0.00000000E+00
  0.00000000E+00  0.00000000E+00  0.00000000E+00
  0.00000000E+00  0.00000000E+00  0.00000000E+00
