Pnm21                                   
1.0
       10.3661594391         0.0000000000         0.0000000000
       -0.0000095389        10.2336759567         0.0000000000
       -0.0000047694         0.5114396526         5.0912169132
   Hf    O
   16   32
Direct
     0.000398775         0.499190244         0.998380478
     0.000398775         0.999190197         0.998380478
     0.500398768         0.499190244         0.998380478
     0.500398768         0.999190197         0.998380478
     0.238321555         0.249190467         0.998381133
     0.238321555         0.749190421         0.998381133
     0.738321532         0.249190467         0.998381133
     0.738321532         0.749190421         0.998381133
     0.000398204         0.249190617         0.498381261
     0.000398204         0.749190617         0.498381261
     0.500398215         0.249190617         0.498381261
     0.500398216         0.749190617         0.498381261
     0.238321555         0.499190563         0.498380933
     0.238321555         0.999190517         0.498380933
     0.738321532         0.499190563         0.498380933
     0.738321532         0.999190517         0.498380933
     0.404372874         0.162892985         0.825787485
     0.404372875         0.662892985         0.825787485
     0.904372828         0.162892985         0.825787485
     0.904372829         0.662892985         0.825787485
     0.147215161         0.125780945         0.751563933
     0.147215161         0.625780922         0.751563933
     0.647215069         0.125780945         0.751563933
     0.647215069         0.625780922         0.751563933
     0.334346509         0.162893926         0.325787847
     0.334346509         0.662893868         0.325787847
     0.834346509         0.162893926         0.325787847
     0.834346509         0.662893868         0.325787847
     0.091504276         0.125781359         0.251562726
     0.091504276         0.625781371         0.251562726
     0.591504224         0.125781359         0.251562726
     0.591504224         0.625781371         0.251562726
     0.334347889         0.412892389         0.825784956
     0.334347890         0.912892529         0.825784956
     0.834347889         0.412892389         0.825784956
     0.834347890         0.912892529         0.825784956
     0.091505248         0.375780782         0.751561592
     0.091505248         0.875780782         0.751561592
     0.591505190         0.375780782         0.751561592
     0.591505191         0.875780782         0.751561592
     0.404372874         0.412893752         0.325785974
     0.404372875         0.912893845         0.325785974
     0.904372828         0.412893752         0.325785974
     0.904372829         0.912893845         0.325785974
     0.147215161         0.375781949         0.251561883
     0.147215161         0.875781949         0.251561883
     0.647215069         0.375781949         0.251561883
     0.647215069         0.875781949         0.251561883
