Pnm21  P2 vo3 O25                       
   1.00000000000000     
    10.1935821892279339   -0.0209518117371629   -0.0498852049965222
    -0.0223096279193387   10.0845208729956664   -0.3177996837412714
    -0.0266120468638805    0.3458813763653683    5.0646231909458930
   Hf   O 
    16    31
Direct
  0.0129698292670509  0.5097276184399276  0.0096492467787765
 -0.0016625088815758  0.0066554819669668  0.0021514065928407
  0.5020354255678856  0.5188533665751188 -0.0233234118048600
  0.5047831014070522  0.9935818807515816  0.0307591346191085
  0.2266641155325607  0.2492961491504239  0.0000953968282517
  0.2397843853210191  0.7621688575897563  0.0455695705388973
  0.7529430397931532  0.2789815937435892 -0.0047436258809062
  0.7568664879031582  0.7603696285158659  0.0329626819524214
 -0.0138532876157595  0.2643186084235412  0.5063411969021469
  0.9908122883826973  0.7674979456879290  0.5342835382040202
  0.4934070361689637  0.2404706154017393  0.5666449517115689
  0.5149557085440010  0.7664388389847926  0.5287823839318999
  0.2410768444681756  0.5158687518675424  0.5266310967065373
  0.2544579835824213  0.0033237630631346  0.5423359411820312
  0.7269613063064493  0.5020472667946917  0.4834255078183429
  0.7421805125438600  0.0158505210854718  0.5263094438060626
  0.3771369356009043  0.1195103517755705  0.8252846617629516
  0.4031936122652710  0.6179470103591631  0.6773086442814086
  0.8842462561890395  0.1519211338003987  0.7977965340749340
  0.9111709163563532  0.6642651833069944  0.8596979430248177
  0.1299116049915647  0.1334981406238986  0.7263002557818380
  0.1505435888575733  0.6357973795292173  0.7773886330425755
  0.6318017461334087  0.1360497493212954  0.8184416911654815
  0.6512470257661762  0.6333941655512979  0.7693558170165410
  0.3294457202065963  0.1758492462530091  0.3302641125405137
  0.3417717035647316  0.5888557946136767  0.1863430357608616
  0.8191002884422762  0.1692788355246570  0.3161050209225796
  0.8397554143919015  0.6606524868262650  0.3599926958074499
  0.0726655916580329  0.1550261053985124  0.2197958122910944
  0.0994068282121853  0.6433878538250001  0.2868770377042951
  0.5683597203158851  0.1003594277115297  0.3432561946564585
  0.5969712559872871  0.6338655961540153  0.2518481779435467
  0.3565131919780936  0.3754545480942467  0.7732774883838049
  0.3653427949076489  0.8696486035057247  0.7789855701679371
  0.8580017263777041  0.4059737744030720  0.7464106758638036
  0.8581932920266564  0.8977864944402765  0.7783101547455500
  0.1031080252358423  0.3852752378774223  0.7543084516968858
  0.1145340749800974  0.8847671483642345  0.7848276675704124
  0.6088222191166893  0.3850770960481847  0.7483571734228115
  0.6135708103997864  0.8826936397311763  0.7862423329785951
  0.3865508741491276  0.8752147651293071  0.2806919385312669
  0.8772040637951805  0.4070226678359326  0.2454243336215291
  0.8912059261223613  0.9086831482627726  0.2860109639374303
  0.1506808915192330  0.3912286475717464  0.2556128402643564
  0.1414619419773051  0.8966161101726082  0.2788364482256858
  0.6009678544520938  0.3733283136197293  0.2515264920822374
  0.6476384377318729  0.8790666663269758  0.2831415708432463
 
  0.00000000E+00  0.00000000E+00  0.00000000E+00
  0.00000000E+00  0.00000000E+00  0.00000000E+00
  0.00000000E+00  0.00000000E+00  0.00000000E+00
  0.00000000E+00  0.00000000E+00  0.00000000E+00
  0.00000000E+00  0.00000000E+00  0.00000000E+00
  0.00000000E+00  0.00000000E+00  0.00000000E+00
  0.00000000E+00  0.00000000E+00  0.00000000E+00
  0.00000000E+00  0.00000000E+00  0.00000000E+00
  0.00000000E+00  0.00000000E+00  0.00000000E+00
  0.00000000E+00  0.00000000E+00  0.00000000E+00
  0.00000000E+00  0.00000000E+00  0.00000000E+00
  0.00000000E+00  0.00000000E+00  0.00000000E+00
  0.00000000E+00  0.00000000E+00  0.00000000E+00
  0.00000000E+00  0.00000000E+00  0.00000000E+00
  0.00000000E+00  0.00000000E+00  0.00000000E+00
  0.00000000E+00  0.00000000E+00  0.00000000E+00
  0.00000000E+00  0.00000000E+00  0.00000000E+00
  0.00000000E+00  0.00000000E+00  0.00000000E+00
  0.00000000E+00  0.00000000E+00  0.00000000E+00
  0.00000000E+00  0.00000000E+00  0.00000000E+00
  0.00000000E+00  0.00000000E+00  0.00000000E+00
  0.00000000E+00  0.00000000E+00  0.00000000E+00
  0.00000000E+00  0.00000000E+00  0.00000000E+00
  0.00000000E+00  0.00000000E+00  0.00000000E+00
  0.00000000E+00  0.00000000E+00  0.00000000E+00
  0.00000000E+00  0.00000000E+00  0.00000000E+00
  0.00000000E+00  0.00000000E+00  0.00000000E+00
  0.00000000E+00  0.00000000E+00  0.00000000E+00
  0.00000000E+00  0.00000000E+00  0.00000000E+00
  0.00000000E+00  0.00000000E+00  0.00000000E+00
  0.00000000E+00  0.00000000E+00  0.00000000E+00
  0.00000000E+00  0.00000000E+00  0.00000000E+00
  0.00000000E+00  0.00000000E+00  0.00000000E+00
  0.00000000E+00  0.00000000E+00  0.00000000E+00
  0.00000000E+00  0.00000000E+00  0.00000000E+00
  0.00000000E+00  0.00000000E+00  0.00000000E+00
  0.00000000E+00  0.00000000E+00  0.00000000E+00
  0.00000000E+00  0.00000000E+00  0.00000000E+00
  0.00000000E+00  0.00000000E+00  0.00000000E+00
  0.00000000E+00  0.00000000E+00  0.00000000E+00
  0.00000000E+00  0.00000000E+00  0.00000000E+00
  0.00000000E+00  0.00000000E+00  0.00000000E+00
  0.00000000E+00  0.00000000E+00  0.00000000E+00
  0.00000000E+00  0.00000000E+00  0.00000000E+00
  0.00000000E+00  0.00000000E+00  0.00000000E+00
  0.00000000E+00  0.00000000E+00  0.00000000E+00
  0.00000000E+00  0.00000000E+00  0.00000000E+00
