p21c    M2 vo3 O32                      
   1.00000000000000     
    10.5110802680028517    0.0156259613371439    0.0172754323773163
     0.0149638913728871   10.3221822024018550    0.0530783323465586
    -0.8460191852083385    0.0246621341406950    5.0445050909946572
   Hf   O 
    16    31
Direct
  0.0003613540490999  0.5047769733891622 -0.0100591507076963
  0.0014723028791231  0.0004966490042407  0.9983760658198081
  0.4976836437514071  0.4965621863955368 -0.0023074583200369
  0.5008657173219708  0.0006424738757941  0.9910007106879958
  0.2914571041061216  0.0413793189523428  0.4405606373604073
  0.2916165729317038  0.5377219590320010  0.4413842701733792
  0.7939866624622692  0.0460082157903880  0.4547502877257289
  0.7995547114137018  0.5249899934441001  0.4279663312204313
  0.0441995499323908  0.2486836754988263  0.4427167953065740
  0.0454553392497105  0.7515659053927566  0.4460512435017091
  0.5402336104062723  0.2487309234702771  0.4404218018081245
  0.5272548827575112  0.7576718237066865  0.4442466700621799
  0.2485123350643416  0.2908790701689231 -0.0053054085878728
  0.2485167457352518  0.7908059422542395  0.9906377082178034
  0.7464800449277385  0.2890048415500231 -0.0095338242986165
  0.7562517281408447  0.8017005709367104  0.0493299101356139
  0.4041132987403425  0.3897743872869305  0.2745437783540602
  0.4021289352856961  0.8924198662983894  0.2635033345618171
  0.9058175956271602  0.3929063959161583  0.2636813984226046
  0.9065221732870223  0.8960698144639269  0.2882408409812747
  0.1548727463465789  0.4000671143734747  0.2683246132288485
  0.1557834718110906  0.8994623431798723  0.2694908104287747
  0.6538264034298575  0.3978761772409238  0.2638456466667382
  0.6551067541781964  0.9020235860688562  0.2938267753085806
  0.3868448748142519  0.1469321121485640  0.1601394409902693
  0.3873419163645878  0.6484601956132486  0.1720148105715450
  0.8865119863946662  0.1503322650351259  0.1705040289664162
  0.8856543315176655  0.6521402621419807  0.1591986671178206
  0.1364349909912788  0.1426783603204172  0.1666241230980030
  0.1355659321890441  0.6418938409691705  0.1670089503431034
  0.6375065313360428  0.1405589745481111  0.1654400937471485
  0.6499631409150360  0.6496083021918971  0.2530962986560795
  0.3200065155098066  0.4378498526652025  0.7926888176683344
  0.3260503854322208  0.9293360332237868  0.7778143620990948
  0.8048847066845010  0.4522965161848215  0.7946986957359833
  0.8201131897447000  0.9277915422309241  0.7944785718905216
  0.0649758555635597  0.3604004026392633  0.7792197342447408
  0.0723038699749218  0.8586522828213246  0.7850221680177638
  0.5619530223776131  0.3483475167415411  0.7900574665065826
  0.5823629453141009  0.8395586961841022  0.8053644424762327
  0.4789246493605591  0.0963126260894995  0.6411067024609782
  0.4826291988159607  0.6051894735167062  0.6618374978050214
  0.9734298354096325  0.1069728625977445  0.6575692241355912
  0.9569377421061144  0.6177858089484569  0.6527015750350043
  0.2248741787057185  0.1864018381258588  0.6507980477409511
  0.2216722419045980  0.6814657623382528  0.6523677731739244
  0.7261533257380256  0.1928259650334429  0.6463809894606440
 
  0.00000000E+00  0.00000000E+00  0.00000000E+00
  0.00000000E+00  0.00000000E+00  0.00000000E+00
  0.00000000E+00  0.00000000E+00  0.00000000E+00
  0.00000000E+00  0.00000000E+00  0.00000000E+00
  0.00000000E+00  0.00000000E+00  0.00000000E+00
  0.00000000E+00  0.00000000E+00  0.00000000E+00
  0.00000000E+00  0.00000000E+00  0.00000000E+00
  0.00000000E+00  0.00000000E+00  0.00000000E+00
  0.00000000E+00  0.00000000E+00  0.00000000E+00
  0.00000000E+00  0.00000000E+00  0.00000000E+00
  0.00000000E+00  0.00000000E+00  0.00000000E+00
  0.00000000E+00  0.00000000E+00  0.00000000E+00
  0.00000000E+00  0.00000000E+00  0.00000000E+00
  0.00000000E+00  0.00000000E+00  0.00000000E+00
  0.00000000E+00  0.00000000E+00  0.00000000E+00
  0.00000000E+00  0.00000000E+00  0.00000000E+00
  0.00000000E+00  0.00000000E+00  0.00000000E+00
  0.00000000E+00  0.00000000E+00  0.00000000E+00
  0.00000000E+00  0.00000000E+00  0.00000000E+00
  0.00000000E+00  0.00000000E+00  0.00000000E+00
  0.00000000E+00  0.00000000E+00  0.00000000E+00
  0.00000000E+00  0.00000000E+00  0.00000000E+00
  0.00000000E+00  0.00000000E+00  0.00000000E+00
  0.00000000E+00  0.00000000E+00  0.00000000E+00
  0.00000000E+00  0.00000000E+00  0.00000000E+00
  0.00000000E+00  0.00000000E+00  0.00000000E+00
  0.00000000E+00  0.00000000E+00  0.00000000E+00
  0.00000000E+00  0.00000000E+00  0.00000000E+00
  0.00000000E+00  0.00000000E+00  0.00000000E+00
  0.00000000E+00  0.00000000E+00  0.00000000E+00
  0.00000000E+00  0.00000000E+00  0.00000000E+00
  0.00000000E+00  0.00000000E+00  0.00000000E+00
  0.00000000E+00  0.00000000E+00  0.00000000E+00
  0.00000000E+00  0.00000000E+00  0.00000000E+00
  0.00000000E+00  0.00000000E+00  0.00000000E+00
  0.00000000E+00  0.00000000E+00  0.00000000E+00
  0.00000000E+00  0.00000000E+00  0.00000000E+00
  0.00000000E+00  0.00000000E+00  0.00000000E+00
  0.00000000E+00  0.00000000E+00  0.00000000E+00
  0.00000000E+00  0.00000000E+00  0.00000000E+00
  0.00000000E+00  0.00000000E+00  0.00000000E+00
  0.00000000E+00  0.00000000E+00  0.00000000E+00
  0.00000000E+00  0.00000000E+00  0.00000000E+00
  0.00000000E+00  0.00000000E+00  0.00000000E+00
  0.00000000E+00  0.00000000E+00  0.00000000E+00
  0.00000000E+00  0.00000000E+00  0.00000000E+00
  0.00000000E+00  0.00000000E+00  0.00000000E+00
