p21c                                    
1.0
       10.6513881683         0.0000000000         0.0000000000
        0.0000041452        10.3766565323         0.0000000000
       -0.8655459797        -0.0000017063         5.0633456317
   Hf    O
   16   32
Direct
     0.000138973         0.499431451         0.998363964
     0.000138974         0.999431451         0.998363964
     0.500138978         0.499431451         0.998363964
     0.500139008         0.999431451         0.998363964
     0.292258331         0.042306104         0.446494319
     0.292258316         0.542306125         0.446494319
     0.792258331         0.042306104         0.446494319
     0.792258316         0.542306125         0.446494319
     0.042258321         0.249432395         0.446494319
     0.042258319         0.749432349         0.446494319
     0.542258340         0.249432395         0.446494319
     0.542258369         0.749432349         0.446494319
     0.250138955         0.292307042         0.998364058
     0.250138962         0.792306973         0.998364058
     0.750139022         0.292307042         0.998364058
     0.750139006         0.792306973         0.998364058
     0.407520815         0.392201778         0.273832239
     0.407520844         0.892201870         0.273832239
     0.907520859         0.392201778         0.273832239
     0.907520844         0.892201870         0.273832239
     0.157520838         0.399536730         0.273832286
     0.157520834         0.899536776         0.273832286
     0.657520816         0.399536730         0.273832286
     0.657520845         0.899536776         0.273832286
     0.384873772         0.149533933         0.171024212
     0.384873802         0.649533887         0.171024212
     0.884873862         0.149533933         0.171024212
     0.884873847         0.649533887         0.171024212
     0.134873813         0.142204576         0.171025224
     0.134873809         0.642204588         0.171025224
     0.634873768         0.142204576         0.171025224
     0.634873797         0.642204588         0.171025224
     0.320021132         0.435707101         0.790119575
     0.320021116         0.935707101         0.790119575
     0.820021177         0.435707101         0.790119575
     0.820021161         0.935707101         0.790119575
     0.070021110         0.356030865         0.790119481
     0.070021112         0.856030888         0.790119481
     0.570021110         0.356030865         0.790119481
     0.570021095         0.856030888         0.790119481
     0.472380472         0.106028132         0.654735366
     0.472380457         0.606028178         0.654735366
     0.972380293         0.106028132         0.654735366
     0.972380367         0.606028178         0.654735366
     0.222380911         0.185710375         0.654735366
     0.222380918         0.685710364         0.654735366
     0.722380934         0.185710375         0.654735366
     0.722380918         0.685710364         0.654735366
