&control
  calculation ='nscf'
  restart_mode ='from_scratch',
  prefix       ='ZnO',
  outdir='./temp'
  pseudo_dir='./GBRV_PBEsol'
  disk_io='low'
  etot_conv_thr=1.D-7,
  forc_conv_thr=1.D-6,
  verbosity    ='high',
!  tprnfor=.t.
!  tstress=.t.
  nstep=200
nppstr=8
gdir = 3
lberry=.true.
!  tefield = .true.
!  dipfield = .true.

 /
&system
  nosym = .true.,
  ibrav= 0,
  nat=  72,
  ntyp= 3,
  tot_charge = 0.0
  ecutwfc =  60,
  ecutrho = 500,
!  occupations='smearing', smearing='mv', degauss=0.001,
!  eamp = 0.0
!  edir = 3
!  emaxpos = 0.1
!  eopreg = 0.05

!  input_dft='hse', nqx1=2, nqx2=2, nqx3=1,
!  x_gamma_extrapolation = .true.
!  vdw_corr = DFT-D3
/

&electrons
    mixing_mode = 'plain'
    mixing_beta = 0.5,
    conv_thr =  1.0d-8
!   Startingpot = 'file'
!   Startingwfc = 'file'
/

&IONS
  upscale           = 100.D0,
/

&CELL
  cell_dynamics     = 'bfgs'
  press_conv_thr    = 0.5d0
  cell_dofree = 'all'
/

ATOMIC_SPECIES
Zn 65.38   zn_pbesol_v1.uspp.F.UPF
O  15.999  o_pbesol_v1.2.uspp.F.UPF
Mg 24.305   mg_pbesol_v1.4.uspp.F.UPF

K_POINTS {automatic}
4 4 8 0 0 0 

CELL_PARAMETERS (angstrom)
   9.749208732   0.003994283  -0.004034189
  -4.871129776   8.444195695   0.004171274
  -0.004305950   0.002658169  10.415541496410

ATOMIC_POSITIONS (crystal)
Zn       0.222450006   0.112001642   0.194220146
Zn       0.223155345   0.110652467   0.694682323
Zn       0.224601894   0.445717592   0.194611763
Zn       0.221552670   0.444654560   0.693943762
Zn       0.222065629   0.777177152   0.192438815
Mg       0.224774240   0.780669798   0.694957807
Zn       0.556450705   0.111122497   0.194187511
Zn       0.555667684   0.111824695   0.694570333
Mg       0.555536965   0.445226993   0.194003130
Mg       0.555556188   0.444085793   0.693529157
Mg       0.553156632   0.776498740   0.194800843
Zn       0.556716741   0.779260564   0.691084824
Mg       0.890257416   0.112713165   0.192164531
Mg       0.890019944   0.110830185   0.692947965
Zn       0.889106015   0.444644187   0.192022614
Mg       0.888967212   0.445859008   0.696437030
Zn       0.886640113   0.777625684   0.194361675
Zn       0.890364608   0.777820910   0.693869948
Zn       0.109643683   0.222512419   0.444752908
Zn       0.111522105   0.221665701   0.943960475
Mg       0.109266967   0.556144675   0.443854239
Zn       0.112685113   0.555187897   0.942615955
Zn       0.112321990   0.888394880   0.443363787
Mg       0.109094357   0.887996361   0.946322984
Zn       0.443614013   0.221411043   0.443166058
Mg       0.444178437   0.221608784   0.944781033
Mg       0.441942556   0.553241663   0.444884818
Zn       0.444614750   0.556459794   0.942023064
Zn       0.442709983   0.889185348   0.444385881
Zn       0.446112437   0.887925810   0.944257035
Mg       0.776771537   0.223881558   0.444028981
Zn       0.777754092   0.220367129   0.942004203
Zn       0.778869149   0.554053304   0.444552878
Zn       0.776689442   0.556641621   0.943957817
Mg       0.779681184   0.889396804   0.443170457
Mg       0.774972101   0.886065673   0.942166471
O        0.222427830   0.110254499   0.003420362
O        0.221483613   0.110851000   0.503407600
O        0.222698318   0.443938548   0.003410607
O        0.220589869   0.444960778   0.502829815
O        0.222521731   0.777792886   0.001543620
O        0.221784455   0.777062435   0.505027770
O        0.556092033   0.110832222   0.003135620
O        0.555019856   0.111145039   0.503390209
O        0.554451983   0.443596614   0.003454825
O        0.555186085   0.444144706   0.503173715
O        0.555486222   0.776676438   0.004841607
O        0.556062544   0.777247336   0.499941037
O        0.888181801   0.108591962   0.001741372
O        0.886830543   0.110836418   0.502607017
O        0.888900494   0.443968185   0.000845287
O        0.889280716   0.443952801   0.505968843
O        0.887577335   0.777861880   0.003411246
O        0.889609246   0.777472644   0.502742419
O        0.111223992   0.222855369   0.253379005
O        0.111634913   0.222372641   0.752986538
O        0.110996553   0.555421802   0.253542248
O        0.111828155   0.557652504   0.751758871
O        0.110426478   0.888474773   0.252061341
O        0.111853228   0.888996278   0.755877466
O        0.445139367   0.222861134   0.251972687
O        0.445165766   0.223094705   0.754850723
O        0.445650180   0.555917830   0.255075227
O        0.444955544   0.556262145   0.750887342
O        0.443560776   0.888873076   0.253284674
O        0.446288210   0.889770993   0.753394406
O        0.778879892   0.222732109   0.253778317
O        0.779295335   0.222621395   0.750980563
O        0.777661589   0.555147694   0.253185419
O        0.776823688   0.555531542   0.753179887
O        0.776429343   0.890477729   0.252498005
O        0.778518417   0.889223797   0.752021088

