T2  O8                                  
   1.00000000000000     
    10.4256554562779584   -0.0042799871808761    0.0003416563304279
    -0.0041606169059352   10.1310377313186901    0.0057016195172414
     0.0001680230634362    0.0028722090984077    5.0744994426982277
   Hf   O 
    16    31
Direct
 -0.0019173510593797 -0.0018337252079936  0.0044596845490796
  0.0006846641258674  0.5022049527744266 -0.0037357726429325
  0.5040299012682716  0.0023515077307158 -0.0008289267555349
  0.4974816307495891  0.4961531450069773  0.0052753114430725
  0.2479793143479706  0.2479206304720703  0.0038994851687122
  0.2518266641509557  0.7526099280536354 -0.0027870461821968
  0.7554000060826525  0.2523335605255688 -0.0021258397699900
  0.7417528513859734  0.7421013982861178  0.9920357851081109
 -0.0020145039856351  0.2519904893559844  0.4950239001512688
  0.0008731385732476  0.7478752121934359  0.5027620493045842
  0.5041926779689221  0.2476223437552491  0.4995407725440097
  0.4973982915460261  0.7539564059304246  0.4939257253895037
  0.2519939112240567  0.4973944122612497  0.5028936601746683
  0.2479819305680813  0.0023024715613530  0.4964576741403697
  0.7416833968625033  0.5079340853990549  0.5081023084189158
  0.7554586916919537  0.9974657701563936  0.5021829704229576
  0.4030808778473945  0.1249967200923732  0.7495093799104063
  0.4101572297565381  0.6250104179277371  0.7497548740662925
  0.9041263693556043  0.1250783321532470  0.7499771901093524
  0.8922452432034528  0.6250806429067289  0.7496304198300336
  0.1526252337446766  0.1250873466656827  0.7500439533361787
  0.1518676120470730  0.6251690824632338  0.7492384675174815
  0.6526430125568553  0.1250771435368107  0.7492905533836220
  0.3511199574032886  0.1250209200473540  0.2496815752217011
  0.3460192394338326  0.6250552992990861  0.2498033308914893
  0.8485252405725580  0.1249875146292705  0.2499539679352734
  0.8464603642717236  0.6249521221785266  0.2496950206756200
  0.0998253433076673  0.1251303438490777  0.2499960861167886
  0.0961864065438561  0.6252997955982936  0.2490242811244999
  0.6010670066960716  0.1251265134723414  0.2491187522979541
  0.5971866257113313  0.6250349053859039  0.2499458104941393
  0.3469475129043079  0.3781401362613285  0.7706248204946705
  0.3469998368100550  0.8719553193242674  0.7290903260206045
  0.8454844061936073  0.3721775281896018  0.7202685802350995
  0.8455480754039051  0.8779528894526433  0.7795336184521531
  0.0969180341158747  0.3762874192845493  0.7458251967732269
  0.0969326966439699  0.8739863910488931  0.7535306825202436
  0.5970571020497837  0.3850618325302677  0.7345155120113555
  0.5971968403017575  0.8650635668388281  0.7647594741462389
  0.4014553610009900  0.3761977682202865  0.2708041488326581
  0.4014701643253369  0.8738372433071017  0.2286944991969593
  0.9062911407001172  0.3665732200639137  0.2161062945691417
  0.9062721025964183  0.8833947972761722  0.2834014724447357
  0.1526963779963076  0.3760345992049358  0.2500462633903845
  0.1527441805811973  0.8743283511061934  0.2494231395070961
  0.6527554701167427  0.3764556645272342  0.2391767464580824
  0.6527200623066374  0.8736043349034683  0.2603238875719432
 
  0.00000000E+00  0.00000000E+00  0.00000000E+00
  0.00000000E+00  0.00000000E+00  0.00000000E+00
  0.00000000E+00  0.00000000E+00  0.00000000E+00
  0.00000000E+00  0.00000000E+00  0.00000000E+00
  0.00000000E+00  0.00000000E+00  0.00000000E+00
  0.00000000E+00  0.00000000E+00  0.00000000E+00
  0.00000000E+00  0.00000000E+00  0.00000000E+00
  0.00000000E+00  0.00000000E+00  0.00000000E+00
  0.00000000E+00  0.00000000E+00  0.00000000E+00
  0.00000000E+00  0.00000000E+00  0.00000000E+00
  0.00000000E+00  0.00000000E+00  0.00000000E+00
  0.00000000E+00  0.00000000E+00  0.00000000E+00
  0.00000000E+00  0.00000000E+00  0.00000000E+00
  0.00000000E+00  0.00000000E+00  0.00000000E+00
  0.00000000E+00  0.00000000E+00  0.00000000E+00
  0.00000000E+00  0.00000000E+00  0.00000000E+00
  0.00000000E+00  0.00000000E+00  0.00000000E+00
  0.00000000E+00  0.00000000E+00  0.00000000E+00
  0.00000000E+00  0.00000000E+00  0.00000000E+00
  0.00000000E+00  0.00000000E+00  0.00000000E+00
  0.00000000E+00  0.00000000E+00  0.00000000E+00
  0.00000000E+00  0.00000000E+00  0.00000000E+00
  0.00000000E+00  0.00000000E+00  0.00000000E+00
  0.00000000E+00  0.00000000E+00  0.00000000E+00
  0.00000000E+00  0.00000000E+00  0.00000000E+00
  0.00000000E+00  0.00000000E+00  0.00000000E+00
  0.00000000E+00  0.00000000E+00  0.00000000E+00
  0.00000000E+00  0.00000000E+00  0.00000000E+00
  0.00000000E+00  0.00000000E+00  0.00000000E+00
  0.00000000E+00  0.00000000E+00  0.00000000E+00
  0.00000000E+00  0.00000000E+00  0.00000000E+00
  0.00000000E+00  0.00000000E+00  0.00000000E+00
  0.00000000E+00  0.00000000E+00  0.00000000E+00
  0.00000000E+00  0.00000000E+00  0.00000000E+00
  0.00000000E+00  0.00000000E+00  0.00000000E+00
  0.00000000E+00  0.00000000E+00  0.00000000E+00
  0.00000000E+00  0.00000000E+00  0.00000000E+00
  0.00000000E+00  0.00000000E+00  0.00000000E+00
  0.00000000E+00  0.00000000E+00  0.00000000E+00
  0.00000000E+00  0.00000000E+00  0.00000000E+00
  0.00000000E+00  0.00000000E+00  0.00000000E+00
  0.00000000E+00  0.00000000E+00  0.00000000E+00
  0.00000000E+00  0.00000000E+00  0.00000000E+00
  0.00000000E+00  0.00000000E+00  0.00000000E+00
  0.00000000E+00  0.00000000E+00  0.00000000E+00
  0.00000000E+00  0.00000000E+00  0.00000000E+00
  0.00000000E+00  0.00000000E+00  0.00000000E+00
