Image 1  
1.0
       10.4487018585         0.0000000000         0.0000000000
        0.0000000000        10.1462736130         0.0000000000
        0.0000000000         0.0000000000         5.0729699135
   Hf    O
   16   32
Direct
     0.000000000         0.000000000         0.000000000
     0.000000000         0.500000000         0.000000000
     0.500000000         0.000000000         0.000000000
     0.500000000         0.500000000         0.000000000
     0.249988500         0.250000000         0.999927999
     0.249988500         0.749999977         0.999927999
     0.749988500         0.250000000         0.999927999
     0.749988500         0.749999977         0.999927999
     0.000014500         0.249999013         0.499985008
     0.000014500         0.749998990         0.499985008
     0.500014467         0.249999013         0.499985008
     0.500014467         0.749998990         0.499985008
     0.249980011         0.499998966         0.499980966
     0.249980011         0.999998966         0.499980966
     0.749979966         0.499998966         0.499980966
     0.749979966         0.999998966         0.499980966
     0.402428001         0.124949502         0.749764047
     0.402428001         0.624949538         0.749764047
     0.902428001         0.124949502         0.749764047
     0.902428001         0.624949538         0.749764047
     0.152399501         0.125232996         0.749473977
     0.152399501         0.625232972         0.749473977
     0.652399478         0.125232996         0.749473977
     0.652399478         0.625232972         0.749473977
     0.347572501         0.124934005         0.249746987
     0.347572501         0.624934029         0.249746987
     0.847572501         0.124934005         0.249746987
     0.847572501         0.624934029         0.249746987
     0.097601001         0.125231504         0.249483000
     0.097601001         0.625231515         0.249483000
     0.597600978         0.125231504         0.249483000
     0.597600978         0.625231515         0.249483000
     0.347567002         0.374951512         0.749755024
     0.347567002         0.874951441         0.749755024
     0.847566934         0.374951512         0.749755024
     0.847566934         0.874951441         0.749755024
     0.097592501         0.375234993         0.749486008
     0.097592501         0.875234923         0.749486008
     0.597592490         0.375234993         0.749486008
     0.597592490         0.875234923         0.749486008
     0.402419512         0.374931515         0.249758995
     0.402419512         0.874931515         0.249758995
     0.902419512         0.374931515         0.249758995
     0.902419512         0.874931515         0.249758995
     0.152394504         0.375229518         0.249474000
     0.152394504         0.875229471         0.249474000
     0.652394549         0.375229518         0.249474000
     0.652394549         0.875229471         0.249474000
