T2  O8                                  
   1.00000000000000     
    10.1710044297700595   -0.0011268727384324    0.0010119820024363
    -0.0009838913395990   10.0694547465253059   -0.0763317317397309
     0.0004801985373137   -0.0382744703095809    5.0461615836504610
   Hf   O 
    16    31
Direct
  0.0046119310041438 -0.0011796191761432 -0.0041721901571045
 -0.0019291533281868  0.5046014980431895  0.9958414404702565
  0.5013169680219983 -0.0003701247983488 -0.0027622577200992
  0.4893971188162500  0.4934710453311793  0.0190120886296497
  0.2489099183760895  0.2476657210849236  0.0069098534647753
  0.2495390684704122  0.7527239441442869  0.9941018718965816
  0.7578583192244660  0.2429573701890411  0.0001049666883280
  0.7578180013716801  0.7638334573366999  0.0314430378334928
  0.0045316548092494  0.2511775081175408  0.5038775008164686
 -0.0018005560492332  0.7455030924343006  0.5035031208179453
  0.5013411050331191  0.2506174395670657  0.5020884569908567
  0.4893930038083535  0.7567294779207646  0.4803408204802066
  0.2495119886030680  0.4972966838572510  0.5053517863713575
  0.2489631712714209  0.0024616850675478  0.4926285575476546
  0.7578147869455959  0.4862059361406144  0.4680134887414567
  0.7577158156058184  0.0068425607820812  0.4999874413869033
  0.3980583226685327  0.1251665366395018  0.7497430944306730
  0.4080921402154619  0.6252129059897018  0.7499519024490793
  0.8987122619220339  0.1250181752584366  0.7501258928986212
  0.8669408163260244  0.6250131258222960  0.7497115114451715
  0.1454792713313388  0.1249938119985955  0.7497672770356869
  0.1368891283138436  0.6250016793408645  0.7495602513194143
  0.6442172977534066  0.1251108615246234  0.7497157869413328
  0.3607620222915908  0.1250297258520863  0.2496943463140939
  0.3529218012976218  0.6250372539740701  0.2498911085664479
  0.8604986572681300  0.1249581054662921  0.2501589159961378
  0.8610722081163106  0.6250205056829027  0.2497083396744722
  0.1090299735197009  0.1250490153312978  0.2497738662471356
  0.1056621890560719  0.6250711731615870  0.2494872873520195
  0.6100209675601609  0.1251279806373768  0.2497147322518730
  0.6111886293171811  0.6251550496052501  0.2495256378448132
  0.3541499239222827  0.3754626404779809  0.7697433159241116
  0.3542713295784354  0.8748186928724019  0.7297011076391894
  0.8539669286534465  0.3692416415609074  0.7381725824612055
  0.8541942984131148  0.8807493981182269  0.7612489152985461
  0.1054116459968070  0.3765639719247978  0.7531007584741725
  0.1055334674376657  0.8733516311491958  0.7468428958823516
  0.6022495791413450  0.4131033628729608  0.7088260839469116
  0.6025364820161963  0.8374198151767203  0.7899228349748553
  0.3899782651195823  0.3747767188557742  0.2713320561094097
  0.3899813745701525  0.8752683145593591  0.2279325522656470
  0.8929472094095674  0.3743561021100903  0.2431327488161058
  0.8929025047694586  0.8755953248494525  0.2563586960247424
  0.1418012154720063  0.3758205863702033  0.2525908762263566
  0.1418124805875775  0.8742345645018610  0.2472932289399997
  0.6406031675977679  0.3714232069381320  0.2145935689255057
  0.6405516403729140  0.8788511953350828  0.2842779100652142
 
  0.00000000E+00  0.00000000E+00  0.00000000E+00
  0.00000000E+00  0.00000000E+00  0.00000000E+00
  0.00000000E+00  0.00000000E+00  0.00000000E+00
  0.00000000E+00  0.00000000E+00  0.00000000E+00
  0.00000000E+00  0.00000000E+00  0.00000000E+00
  0.00000000E+00  0.00000000E+00  0.00000000E+00
  0.00000000E+00  0.00000000E+00  0.00000000E+00
  0.00000000E+00  0.00000000E+00  0.00000000E+00
  0.00000000E+00  0.00000000E+00  0.00000000E+00
  0.00000000E+00  0.00000000E+00  0.00000000E+00
  0.00000000E+00  0.00000000E+00  0.00000000E+00
  0.00000000E+00  0.00000000E+00  0.00000000E+00
  0.00000000E+00  0.00000000E+00  0.00000000E+00
  0.00000000E+00  0.00000000E+00  0.00000000E+00
  0.00000000E+00  0.00000000E+00  0.00000000E+00
  0.00000000E+00  0.00000000E+00  0.00000000E+00
  0.00000000E+00  0.00000000E+00  0.00000000E+00
  0.00000000E+00  0.00000000E+00  0.00000000E+00
  0.00000000E+00  0.00000000E+00  0.00000000E+00
  0.00000000E+00  0.00000000E+00  0.00000000E+00
  0.00000000E+00  0.00000000E+00  0.00000000E+00
  0.00000000E+00  0.00000000E+00  0.00000000E+00
  0.00000000E+00  0.00000000E+00  0.00000000E+00
  0.00000000E+00  0.00000000E+00  0.00000000E+00
  0.00000000E+00  0.00000000E+00  0.00000000E+00
  0.00000000E+00  0.00000000E+00  0.00000000E+00
  0.00000000E+00  0.00000000E+00  0.00000000E+00
  0.00000000E+00  0.00000000E+00  0.00000000E+00
  0.00000000E+00  0.00000000E+00  0.00000000E+00
  0.00000000E+00  0.00000000E+00  0.00000000E+00
  0.00000000E+00  0.00000000E+00  0.00000000E+00
  0.00000000E+00  0.00000000E+00  0.00000000E+00
  0.00000000E+00  0.00000000E+00  0.00000000E+00
  0.00000000E+00  0.00000000E+00  0.00000000E+00
  0.00000000E+00  0.00000000E+00  0.00000000E+00
  0.00000000E+00  0.00000000E+00  0.00000000E+00
  0.00000000E+00  0.00000000E+00  0.00000000E+00
  0.00000000E+00  0.00000000E+00  0.00000000E+00
  0.00000000E+00  0.00000000E+00  0.00000000E+00
  0.00000000E+00  0.00000000E+00  0.00000000E+00
  0.00000000E+00  0.00000000E+00  0.00000000E+00
  0.00000000E+00  0.00000000E+00  0.00000000E+00
  0.00000000E+00  0.00000000E+00  0.00000000E+00
  0.00000000E+00  0.00000000E+00  0.00000000E+00
  0.00000000E+00  0.00000000E+00  0.00000000E+00
  0.00000000E+00  0.00000000E+00  0.00000000E+00
  0.00000000E+00  0.00000000E+00  0.00000000E+00
