Pnm21                                   
1.0
        5.1830797195         0.0000000000         0.0000000000
       -0.0000047694         5.1168379784         0.0000000000
       -0.0000047694         0.5114396526         5.0912169132
   Hf    O
    4    8
Direct
     0.000797550         0.998380487         0.998380478
     0.476643110         0.498380934         0.998381133
     0.000796408         0.498381233         0.498381261
     0.476643110         0.998381126         0.498380933
     0.808745657         0.325785970         0.825787485
     0.294430322         0.251561890         0.751563933
     0.668693065         0.325787853         0.325787847
     0.183008552         0.251562718         0.251562726
     0.668695779         0.825784871         0.825784956
     0.183010496         0.751561565         0.751561592
     0.808745657         0.825787504         0.325785974
     0.294430322         0.751563898         0.251561883
    
     
    
     
     
     
    
