Image 1  
1.0
    5.224351     0.000000     0.000000
    0.000000     5.073137     0.000000
    0.000000     0.000000     5.072970
  Hf   O
   4   8
Direct
    0.000000     0.000000     0.000000 
    0.499977     0.500000     0.999928 
    0.000029     0.499998     0.499985 
    0.499960     0.999998     0.499981 
    0.804856     0.249899     0.749764 
    0.304799     0.250466     0.749474 
    0.695145     0.249868     0.249747 
    0.195202     0.250463     0.249483 
    0.695134     0.749903     0.749755 
    0.195185     0.750470     0.749486 
    0.804839     0.749863     0.249759 
    0.304789     0.750459     0.249474 

  0.00000000E+00  0.00000000E+00  0.00000000E+00
  0.00000000E+00  0.00000000E+00  0.00000000E+00
  0.00000000E+00  0.00000000E+00  0.00000000E+00
  0.00000000E+00  0.00000000E+00  0.00000000E+00
  0.00000000E+00  0.00000000E+00  0.00000000E+00
  0.00000000E+00  0.00000000E+00  0.00000000E+00
  0.00000000E+00  0.00000000E+00  0.00000000E+00
  0.00000000E+00  0.00000000E+00  0.00000000E+00
  0.00000000E+00  0.00000000E+00  0.00000000E+00
  0.00000000E+00  0.00000000E+00  0.00000000E+00
  0.00000000E+00  0.00000000E+00  0.00000000E+00
  0.00000000E+00  0.00000000E+00  0.00000000E+00
