p21c                                    
1.0
        5.3256940842         0.0000000000         0.0000000000
       -0.8655459797         5.0633456317         0.0000000000
        0.0000020726        -0.0000017484         5.1883282661
   Hf    O
    4    8
Direct
      0.000277956         0.998364027         0.998862942
      0.584516622         0.446494349         0.084612211
      0.084516645         0.446494350         0.498864780
      0.500277911         0.998364072         0.584614078
      0.815041635         0.273832275         0.784403559
      0.315041675         0.273832280         0.799073461
      0.769747591         0.171024221         0.299067855
      0.269747626         0.171025228         0.284409142
      0.640042267         0.790119593         0.871414217
      0.140042227         0.790119538         0.712061746
      0.944760859         0.654735392         0.212056255
      0.444761828         0.654735400         0.371420742
     
    
