pbca                                 
1.0
   10.040848     0.000036    -0.000000
    0.000018     5.084583     0.000001
   -0.000000     0.000001     5.242964
  Hf   O
   8  16
Direct
    0.269255     0.998886     0.500131 
    0.000291     0.498886     0.428993 
    0.769243     0.490143     0.928994 
    0.500278     0.990141     0.000131 
    0.500278     0.490141     0.428993 
    0.769243    -0.009857     0.500130 
    0.000291    -0.001114     0.000130 
    0.269255     0.498886     0.928993 
    0.862103     0.747121     0.202878 
    0.407430     0.247119     0.726246 
    0.407430     0.747119     0.702877 
    0.862103     0.247121     0.226245 
    0.907429     0.741908     0.726246 
    0.362103     0.241905     0.202876 
    0.174147     0.369518     0.591069 
    0.595387     0.119515     0.338053 
    0.674151     0.119521     0.838044 
    0.595387     0.619515     0.091070 
    0.907429     0.241908     0.702877 
    0.674151     0.619521     0.591079 
    0.095381     0.369515     0.091075 
    0.174146     0.869517     0.838053 
    0.095381     0.869514     0.338047 
    0.362103     0.741905     0.226248 
