BEGIN
BEGIN_PATH_INPUT
&PATH
   restart_mode = 'restart',
!   restart_mode = 'from_scratch',
   string_method = 'neb',
   nstep_path = 150,
   ds = 0.6D0,
   opt_scheme = "broyden"
   num_of_images = 17,
   CI_scheme = "no-CI",
   path_thr = 0.05D0,
/
END_PATH_INPUT
BEGIN_ENGINE_INPUT
&control
  prefix       ='ZnMgO',
  outdir='./temp'
  pseudo_dir='./GBRV_PBEsol'
  disk_io='low'
!  etot_conv_thr=1.D-7,
!  forc_conv_thr=1.D-6,
  verbosity    ='high',
  tprnfor=.t.
  tstress=.t.
  nstep=200
!  tefield = .true.
!  dipfield = .true.
/
&system
  nosym = .true.,
  ibrav= 0,
  nat=  5,
  ntyp= 3,
!  A = 12.290490,
!  C = 20.0
  tot_charge = 0.0
  ecutwfc =  60,
  ecutrho = 500,
  occupations='smearing', smearing='mv', degauss=0.001,
!  eamp = 0.0
!  edir = 3
!  emaxpos = 0.1
!  eopreg = 0.05
!  input_dft='hse', nqx1=2, nqx2=2, nqx3=1,
!  x_gamma_extrapolation = .true.
!  vdw_corr = DFT-D3
/
&electrons
    mixing_mode = 'plain'
    mixing_beta = 0.5,
!    conv_thr =  1.0d-8
   Startingpot = 'file'
   Startingwfc = 'file'
/
&IONS
  upscale           = 100.D0,
/
ATOMIC_SPECIES
Pb 207.2 Pb.upf
Ti 47.867 Ti.upf
O 15.999 O.upf

K_POINTS {automatic}
8 8 8 0 0 0

!K_POINTS {gamma}

CELL_PARAMETERS (angstrom)
    3.862407    -0.000000     0.000001
   -0.000000     3.862407     0.000001
   -0.000001    -0.000002     4.250460

BEGIN_POSITIONS
FIRST_IMAGE
ATOMIC_POSITIONS (crystal)
   Pb     -0.0000010000     -0.0000010000      0.0885440000
   Ti      0.5000000000      0.5000000000      0.5480910000
    O      0.5000010000      0.5000010000     -0.0369230000
    O      0.5000000000     -0.0000000000      0.4601440000
    O     -0.0000000000      0.5000010000      0.4601440000
INTERMEDIATE_IMAGE
ATOMIC_POSITIONS (crystal)
   Pb     -0.0001007066      0.0000642188      0.0704605760
   Ti      0.5000108743      0.4999924371      0.5440547759
    O      0.5000355969      0.4999777562     -0.0361707975
    O      0.5000341776     -0.0000125127      0.4640559427
    O      0.0000200578      0.4999787629      0.4640560577
INTERMEDIATE_IMAGE
ATOMIC_POSITIONS (crystal)
   Pb      0.0002662056     -0.0000927084      0.0537143092
   Ti      0.4999053475      0.5000388089      0.5417129444
    O      0.4999375710      0.5000194839     -0.0338014561
    O      0.4999412282      0.0000173215      0.4703059418
    O     -0.0000503523      0.5000176562      0.4703058283
INTERMEDIATE_IMAGE
ATOMIC_POSITIONS (crystal)
   Pb      0.0001568128      0.0000807707      0.0375140654
   Ti      0.4999626432      0.4999798137      0.5394022007
    O      0.4999558632      0.4999775924     -0.0309522560
    O      0.4999567902     -0.0000162842      0.4771068113
    O     -0.0000321094      0.4999786315      0.4771065640
INTERMEDIATE_IMAGE
ATOMIC_POSITIONS (crystal)
   Pb      0.0000005683     -0.0000021329      0.0227308248
   Ti      0.5000008592      0.4999995219      0.5345512592
    O      0.4999996255      0.5000009978     -0.0270881123
    O      0.4999992583      0.0000007870      0.4841505807
    O     -0.0000003111      0.5000013337      0.4841502393
INTERMEDIATE_IMAGE
ATOMIC_POSITIONS (crystal)
   Pb      0.0000008877     -0.0000019196      0.0109630223
   Ti      0.5000013105      0.4999996543      0.5256077656
    O      0.4999993511      0.5000008469     -0.0205526712
    O      0.4999990053      0.0000007442      0.4905376850
    O     -0.0000005546      0.5000011763      0.4905372536
INTERMEDIATE_IMAGE
ATOMIC_POSITIONS (crystal)
   Pb      0.0000026972     -0.0000009718      0.0044721818
   Ti      0.5000007649      0.4999992606      0.5126204528
    O      0.4999989216      0.5000006471     -0.0111633723
    O      0.4999985643      0.0000006368      0.4951933121
    O     -0.0000009480      0.5000009285      0.4951928814
INTERMEDIATE_IMAGE
ATOMIC_POSITIONS (crystal)
   Pb      0.0000028391     -0.0000012713     -0.0003111219
   Ti      0.5000007918      0.4999993916      0.4988985731
    O      0.4999988633      0.5000007061     -0.0009692734
    O      0.4999985111      0.0000007020      0.4991377926
    O     -0.0000010051      0.5000009723      0.4991373349
INTERMEDIATE_IMAGE
ATOMIC_POSITIONS (crystal)
   Pb      0.0000024447     -0.0000011454     -0.0036284924
   Ti      0.5000007651      0.4999994410      0.4846402196
    O      0.4999990096      0.5000006525      0.0095388438
    O      0.4999986508      0.0000006378      0.5029511949
    O     -0.0000008701      0.5000009147      0.5029507350
INTERMEDIATE_IMAGE
ATOMIC_POSITIONS (crystal)
   Pb      0.0000025544     -0.0000018195     -0.0110162741
   Ti      0.5000006232      0.4999996394      0.4723833904
    O      0.4999990074      0.5000008486      0.0193753780
    O      0.4999986377      0.0000007153      0.5083008104
    O     -0.0000008226      0.5000011155      0.5083004040
INTERMEDIATE_IMAGE
ATOMIC_POSITIONS (crystal)
   Pb      0.0000020186      0.0000002230     -0.0229723330
   Ti      0.5000007875      0.4999990979      0.4644212224
    O      0.4999991476      0.5000002797      0.0263426028
    O      0.4999987174      0.0000003114      0.5152781578
    O     -0.0000006710      0.5000005810      0.5152778066
INTERMEDIATE_IMAGE
ATOMIC_POSITIONS (crystal)
   Pb     -0.0000096801     -0.0000353841     -0.0376414696
   Ti      0.5000040000      0.5000092738      0.4602028883
    O      0.5000023964      0.5000100831      0.0306456271
    O      0.5000018293      0.0000065182      0.5226716749
    O      0.0000014544      0.5000099847      0.5226713700
INTERMEDIATE_IMAGE
ATOMIC_POSITIONS (crystal)
   Pb      0.0004685523     -0.0005586481     -0.0536766113
   Ti      0.4999093633      0.5001088437      0.4580759250
    O      0.4998606696      0.5001661677      0.0336856323
    O      0.4998591214      0.0001164368      0.5296515412
    O     -0.0000977065      0.5001676371      0.5296513138
INTERMEDIATE_IMAGE
ATOMIC_POSITIONS (crystal)
   Pb      0.0001463491     -0.0001975233     -0.0704338390
   Ti      0.4999831225      0.5000296620      0.4559085319
    O      0.4999508846      0.5000649501      0.0361518770
    O      0.4999517949      0.0000405505      0.5359356229
    O     -0.0000321510      0.5000626983      0.5359352969
LAST_IMAGE
ATOMIC_POSITIONS (crystal)
   Pb      0.0000020000     -0.0000000000     -0.0885250000
   Ti      0.5000000000      0.5000000000      0.4519080000
    O      0.4999990000      0.5000000000      0.0369160000
    O      0.4999990000      0.0000000000      0.5398510000
    O     -0.0000000000      0.5000000000      0.5398500000
END_POSITIONS
END_ENGINE_INPUT
END


